Cr2 H16 C32 N16
1.0
  11.2257900789003013  -11.2257900776862645    0.0000000000000000
  11.2257900776862645   11.2257900789003049    0.0000000000000012
   0.0000000000000000    0.0000000000000000   12.9200320301599252
Cr H C N
2 16 32 16
direct
   0.0000000000000000    0.0000000000000000    0.5000000000000000 Cr
   0.4999999999999999    0.5000000000000000    0.5000000000000001 Cr
   0.0284160472952571    0.2544300274950714    0.5000000000000000 H
   0.5284160472952570    0.7544300274950714    0.5000000000000000 H
   0.9715839527047430    0.7455699725049285    0.5000000000000000 H
   0.4715839527047429    0.2455699725049285    0.5000000000000000 H
   0.2455699725049285    0.5284160472952570    0.5000000000000001 H
   0.7455699725049284    0.0284160472952570    0.5000000000000000 H
   0.7544300274950715    0.4715839527047428    0.5000000000000001 H
   0.2544300274950715    0.9715839527047427    0.5000000000000000 H
   0.6810621205156631    0.5377674248539323    0.5000000000000001 H
   0.1810621205156629    0.0377674248539321    0.5000000000000000 H
   0.3189378794843369    0.4622325751460677    0.5000000000000001 H
   0.8189378794843369    0.9622325751460679    0.5000000000000000 H
   0.9622325751460677    0.1810621205156631    0.5000000000000000 H
   0.4622325751460677    0.6810621205156632    0.5000000000000000 H
   0.0377674248539323    0.8189378794843371    0.5000000000000000 H
   0.5377674248539324    0.3189378794843372    0.5000000000000000 H
   0.0833158530134222    0.2138368904952245    0.5000000000000000 C
   0.5833158530134223    0.7138368904952246    0.5000000000000000 C
   0.9166841469865779    0.7861631095047753    0.5000000000000000 C
   0.4166841469865778    0.2861631095047754    0.5000000000000000 C
   0.2861631095047754    0.5833158530134221    0.5000000000000001 C
   0.7861631095047753    0.0833158530134221    0.5000000000000000 C
   0.7138368904952246    0.4166841469865777    0.5000000000000001 C
   0.2138368904952246    0.9166841469865776    0.5000000000000000 C
   0.1665456606680997    0.2454514889199970    0.5000000000000000 C
   0.6665456606680996    0.7454514889199969    0.5000000000000000 C
   0.8334543393319003    0.7545485110800030    0.5000000000000000 C
   0.3334543393319003    0.2545485110800030    0.5000000000000000 C
   0.2545485110800031    0.6665456606680997    0.5000000000000000 C
   0.7545485110800031    0.1665456606680997    0.5000000000000000 C
   0.7454514889199970    0.3334543393319003    0.4999999999999999 C
   0.2454514889199970    0.8334543393319003    0.5000000000000000 C
   0.7212672483172495    0.6719714795552667    0.5000000000000000 C
   0.2212672483172495    0.1719714795552667    0.5000000000000000 C
   0.2787327516827507    0.3280285204447335    0.4999999999999999 C
   0.7787327516827506    0.8280285204447334    0.5000000000000000 C
   0.8280285204447333    0.2212672483172495    0.5000000000000000 C
   0.3280285204447333    0.7212672483172495    0.5000000000000000 C
   0.1719714795552665    0.7787327516827507    0.5000000000000000 C
   0.6719714795552665    0.2787327516827509    0.5000000000000000 C
   0.6658868476202420    0.6028852299214835    0.5000000000000000 C
   0.1658868476202420    0.1028852299214833    0.5000000000000000 C
   0.3341131523797580    0.3971147700785164    0.5000000000000001 C
   0.8341131523797580    0.8971147700785165    0.5000000000000000 C
   0.8971147700785165    0.1658868476202419    0.5000000000000000 C
   0.3971147700785165    0.6658868476202419    0.5000000000000000 C
   0.1028852299214835    0.8341131523797580    0.5000000000000000 C
   0.6028852299214836    0.3341131523797580    0.5000000000000000 C
   0.0830363584422152    0.1266043880604842    0.5000000000000000 N
   0.5830363584422151    0.6266043880604841    0.5000000000000000 N
   0.9169636415577846    0.8733956119395156    0.5000000000000000 N
   0.4169636415577846    0.3733956119395156    0.5000000000000000 N
   0.3733956119395158    0.5830363584422151    0.5000000000000001 N
   0.8733956119395156    0.0830363584422151    0.5000000000000000 N
   0.6266043880604844    0.4169636415577846    0.5000000000000001 N
   0.1266043880604843    0.9169636415577846    0.5000000000000000 N
   0.1940600297290254    0.3253681233565597    0.4999999999999999 N
   0.6940600297290254    0.8253681233565595    0.5000000000000000 N
   0.8059399702709747    0.6746318766434403    0.5000000000000000 N
   0.3059399702709746    0.1746318766434403    0.5000000000000000 N
   0.1746318766434404    0.6940600297290254    0.5000000000000000 N
   0.6746318766434404    0.1940600297290254    0.5000000000000000 N
   0.8253681233565596    0.3059399702709746    0.4999999999999999 N
   0.3253681233565596    0.8059399702709746    0.5000000000000000 N
