Cr2 H16 C48 S8 N16 O24
1.0
  17.5055789077945185  -17.5055790191736946    0.0000000000000000
  17.5055790191736982   17.5055789077945221    0.0000000000000016
  -0.0000000000000001   -0.0000000000000001   14.3371324101728082
Cr H C S N O
2 16 48 8 16 24
direct
   1.0000000000000000    0.0000000000000000    0.4922952919945238 Cr
   0.5000000000000000    0.4999999999999999    0.4922952919945238 Cr
   0.6256543301006590    0.5647926318675283    0.4892184955180615 H
   0.1256543301006591    0.0647926318675283    0.4892184955180615 H
   0.3743456698993411    0.4352073681324713    0.4892184955180615 H
   0.8743456698993413    0.9352073681324713    0.4892184955180615 H
   0.9352073681324715    0.1256543301006588    0.4892184955180614 H
   0.4352073681324715    0.6256543301006587    0.4892184955180615 H
   0.0647926318675285    0.8743456698993408    0.4892184955180615 H
   0.5647926318675284    0.3743456698993406    0.4892184955180615 H
   0.0334211878891999    0.2000962804120498    0.5090793943416462 H
   0.5334211878891999    0.7000962804120496    0.5090793943416462 H
   0.9665788121107999    0.7999037195879499    0.5090793943416462 H
   0.4665788121107999    0.2999037195879499    0.5090793943416462 H
   0.2999037195879503    0.5334211878891999    0.5090793943416462 H
   0.7999037195879503    0.0334211878891997    0.5090793943416462 H
   0.7000962804120500    0.4665788121107999    0.5090793943416463 H
   0.2000962804120499    0.9665788121107997    0.5090793943416462 H
   0.0732835290878052    0.1281021016815729    0.4963402751934733 C
   0.5732835290878052    0.6281021016815729    0.4963402751934733 C
   0.4267164709121955    0.3718978983184277    0.4963402751934733 C
   0.9267164709121956    0.8718978983184276    0.4963402751934733 C
   0.8718978983184271    0.0732835290878052    0.4963402751934733 C
   0.3718978983184271    0.5732835290878051    0.4963402751934733 C
   0.6281021016815722    0.4267164709121955    0.4963402751934733 C
   0.1281021016815723    0.9267164709121954    0.4963402751934733 C
   0.6729894693843851    0.6340947301213484    0.4945689735463761 C
   0.1729894693843852    0.1340947301213484    0.4945689735463761 C
   0.3270105306156150    0.3659052698786515    0.4945689735463761 C
   0.8270105306156150    0.8659052698786515    0.4945689735463761 C
   0.8659052698786515    0.1729894693843851    0.4945689735463761 C
   0.3659052698786515    0.6729894693843850    0.4945689735463761 C
   0.1340947301213485    0.8270105306156148    0.4945689735463760 C
   0.6340947301213485    0.3270105306156150    0.4945689735463761 C
   0.1689838882322117    0.1929487100395124    0.5023884803466292 C
   0.6689838882322117    0.6929487100395123    0.5023884803466291 C
   0.3310161117677879    0.3070512899604870    0.5023884803466292 C
   0.8310161117677880    0.8070512899604869    0.5023884803466292 C
   0.8070512899604875    0.1689838882322116    0.5023884803466292 C
   0.3070512899604875    0.6689838882322114    0.5023884803466291 C
   0.6929487100395129    0.3310161117677879    0.5023884803466292 C
   0.1929487100395128    0.8310161117677877    0.5023884803466292 C
   0.1156684207836349    0.2179771647869345    0.5154502318593144 C
   0.6156684207836350    0.7179771647869344    0.5154502318593144 C
   0.8843315792163656    0.7820228352130656    0.5154502318593145 C
   0.3843315792163656    0.2820228352130654    0.5154502318593146 C
   0.2820228352130654    0.6156684207836346    0.5154502318593145 C
   0.7820228352130654    0.1156684207836345    0.5154502318593146 C
   0.7179771647869342    0.3843315792163655    0.5154502318593146 C
   0.2179771647869341    0.8843315792163654    0.5154502318593146 C
   0.2149703785921401    0.2250858356629581    0.4992031706657936 C
   0.7149703785921402    0.7250858356629580    0.4992031706657937 C
   0.2850296214078600    0.2749141643370419    0.4992031706657936 C
   0.7850296214078600    0.7749141643370417    0.4992031706657936 C
   0.7749141643370419    0.2149703785921400    0.4992031706657936 C
   0.2749141643370419    0.7149703785921399    0.4992031706657937 C
   0.7250858356629580    0.2850296214078599    0.4992031706657937 C
   0.2250858356629581    0.7850296214078598    0.4992031706657937 C
   0.2253451603617124    0.2846295296489713    0.4949316811059134 C
   0.7253451603617125    0.7846295296489713    0.4949316811059134 C
   0.7746548396382884    0.7153704703510281    0.4949316811059134 C
   0.2746548396382882    0.2153704703510280    0.4949316811059134 C
   0.2153704703510280    0.7253451603617116    0.4949316811059134 C
   0.7153704703510280    0.2253451603617114    0.4949316811059134 C
   0.7846295296489713    0.2746548396382877    0.4949316811059133 C
   0.2846295296489713    0.7746548396382876    0.4949316811059133 C
   0.0135267993228320    0.0917231396728110    0.4926490790264045 S
   0.5135267993228321    0.5917231396728109    0.4926490790264045 S
   0.9864732006771673    0.9082768603271880    0.4926490790264045 S
   0.4864732006771673    0.4082768603271880    0.4926490790264045 S
   0.4082768603271890    0.5135267993228319    0.4926490790264045 S
   0.9082768603271889    0.0135267993228316    0.4926490790264045 S
   0.5917231396728118    0.4864732006771672    0.4926490790264045 S
   0.0917231396728118    0.9864732006771670    0.4926490790264045 S
   0.6224575402581615    0.6062430806778526    0.4928104641387783 N
   0.1224575402581614    0.1062430806778525    0.4928104641387783 N
   0.3775424597418386    0.3937569193221475    0.4928104641387783 N
   0.8775424597418386    0.8937569193221473    0.4928104641387783 N
   0.8937569193221474    0.1224575402581616    0.4928104641387783 N
   0.3937569193221474    0.6224575402581614    0.4928104641387783 N
   0.1062430806778527    0.8775424597418385    0.4928104641387783 N
   0.6062430806778527    0.3775424597418384    0.4928104641387783 N
   0.0703882397215370    0.1820487854988580    0.5039520179692807 N
   0.5703882397215371    0.6820487854988578    0.5039520179692807 N
   0.9296117602784633    0.8179512145011421    0.5039520179692807 N
   0.4296117602784632    0.3179512145011421    0.5039520179692808 N
   0.3179512145011420    0.5703882397215370    0.5039520179692807 N
   0.8179512145011421    0.0703882397215367    0.5039520179692808 N
   0.6820487854988577    0.4296117602784632    0.5039520179692808 N
   0.1820487854988578    0.9296117602784630    0.5039520179692808 N
   0.1056073670211387    0.2650206278038615    0.5341309733526708 O
   0.6056073670211386    0.7650206278038614    0.5341309733526708 O
   0.8943926329788617    0.7349793721961376    0.5341309733526708 O
   0.3943926329788617    0.2349793721961375    0.5341309733526709 O
   0.2349793721961379    0.6056073670211380    0.5341309733526708 O
   0.7349793721961378    0.1056073670211377    0.5341309733526709 O
   0.7650206278038617    0.3943926329788611    0.5341309733526709 O
   0.2650206278038617    0.8943926329788611    0.5341309733526709 O
   0.7137012213153336    0.6060420988491533    0.4908483870792614 O
   0.2137012213153336    0.1060420988491533    0.4908483870792614 O
   0.2862987786846657    0.3939579011508468    0.4908483870792614 O
   0.7862987786846657    0.8939579011508467    0.4908483870792614 O
   0.8939579011508472    0.2137012213153341    0.4908483870792614 O
   0.3939579011508471    0.7137012213153340    0.4908483870792614 O
   0.1060420988491535    0.7862987786846660    0.4908483870792613 O
   0.6060420988491535    0.2862987786846658    0.4908483870792613 O
   0.1967089707430947    0.3244071433647114    0.4863545528577717 O
   0.6967089707430947    0.8244071433647113    0.4863545528577717 O
   0.8032910292569053    0.6755928566352887    0.4863545528577716 O
   0.3032910292569053    0.1755928566352885    0.4863545528577716 O
   0.1755928566352886    0.6967089707430947    0.4863545528577717 O
   0.6755928566352885    0.1967089707430945    0.4863545528577717 O
   0.8244071433647113    0.3032910292569054    0.4863545528577716 O
   0.3244071433647113    0.8032910292569053    0.4863545528577716 O
