Cartesian coordinates                   
1.0
       26.5149612427         0.0000000471         0.0000000000
       -0.0000000471        26.5149612427         0.0000000000
        0.0000000000         0.0000000000        15.0000000000
   Cr    P    H    C    N    O
    2    8   80   56    8   24
Cartesian
     0.000000000         0.000000000         5.366670714
    13.257480598        13.257480645         5.366670714
     2.180381312        24.554882408         4.027090148
    15.437861957        11.297401810         4.027090148
    24.334579883         1.960078882         4.027090148
    11.077099239        15.217559480         4.027090148
    15.217559432        15.437862004         4.027090148
     1.960078835         2.180381359         4.027090148
    11.297401763        11.077099286         4.027090148
    24.554882361        24.334579931         4.027090148
     4.222085385        24.482285974         5.258021160
    17.479566030        11.224805376         5.258021160
    22.292875811         2.032675316         5.258021160
     9.035395166        15.290155914         5.258021160
    15.290155867        17.479566077         5.258021160
     2.032675269         4.222085432         5.258021160
    11.224805329         9.035395213         5.258021160
    24.482285927        22.292875858         5.258021160
     4.024507165        23.084995175         4.177017579
    17.281987810         9.827514577         4.177017579
    22.490454031         3.429966115         4.177017579
     9.232973386        16.687446713         4.177017579
    16.687446665        17.281987857         4.177017579
     3.429966068         4.024507212         4.177017579
     9.827514530         9.232973433         4.177017579
    23.084995128        22.490454078         4.177017579
    15.408182533         8.988365298         5.736871300
     2.150701888        22.245845896         5.736871300
    11.106778663        17.526595991         5.736871300
    24.364259308         4.269115394         5.736871300
     4.269115347         2.150701935         5.736871300
    17.526595944        15.408182580         5.736871300
    22.245845849        24.364259355         5.736871300
     8.988365251        11.106778710         5.736871300
    15.859254283        10.258923414         6.880915831
     2.601773638        23.516404012         6.880915831
    10.655706913        16.256037876         6.880915831
    23.913187558         2.998557278         6.880915831
     2.998557231         2.601773685         6.880915831
    16.256037829        15.859254330         6.880915831
    23.516403965        23.913187605         6.880915831
    10.258923367        10.655706960         6.880915831
     4.920281688        23.544358084         7.698764756
    18.177762333        10.286877487         7.698764756
    21.594679507         2.970603205         7.698764756
     8.337198862        16.228083803         7.698764756
    16.228083756        18.177762380         7.698764756
     2.970603158         4.920281735         7.698764756
    10.286877439         8.337198909         7.698764756
    23.544358037        21.594679554         7.698764756
     6.659424090        22.123595391         8.705015648
    19.916904735         8.866114793         8.705015648
    19.855537105         4.391365899         8.705015648
     6.598056460        17.648846496         8.705015648
    17.648846449        19.916904782         8.705015648
     4.391365852         6.659424137         8.705015648
     8.866114746         6.598056507         8.705015648
    22.123595344        19.855537152         8.705015648
    18.705559622         6.450337884         8.759667267
     5.448078978        19.707818482         8.759667267
     7.809401573        20.064623406         8.759667267
    21.066882218         6.807142808         8.759667267
     6.807142761         5.448079025         8.759667267
    20.064623358        18.705559670         8.759667267
    19.707818435        21.066882265         8.759667267
     6.450337837         7.809401620         8.759667267
    18.465031642         5.612238309         6.177968533
     5.207550997        18.869718907         6.177968533
     8.049929554        20.902722981         6.177968533
    21.307410198         7.645242383         6.177968533
     7.645242336         5.207551044         6.177968533
    20.902722934        18.465031689         6.177968533
    18.869718860        21.307410246         6.177968533
     5.612238262         8.049929601         6.177968533
    16.788885941         7.191019275         5.297531931
     3.531405296        20.448499873         5.297531931
     9.726075255        19.323942015         5.297531931
    22.983555900         6.066461417         5.297531931
     6.066461370         3.531405343         5.297531931
    19.323941967        16.788885988         5.297531931
    20.448499826        22.983555947         5.297531931
     7.191019228         9.726075302         5.297531931
    13.509063071        10.332460579         3.236982300
     0.251582426        23.589941177         3.236982300
    13.005898124        16.182500711         3.236982300
    26.263378769         2.925020113         3.236982300
     2.925020066         0.251582474         3.236982300
    16.182500664        13.509063118         3.236982300
    23.589941130        26.263378816         3.236982300
    10.332460532        13.005898171         3.236982300
     3.509484458        23.717201706         4.915993985
    16.766965102        10.459721108         4.915993985
    23.005476738         2.797759584         4.915993985
     9.747996093        16.055240182         4.915993985
    16.055240135        16.766965150         4.915993985
     2.797759537         3.509484505         4.915993985
    10.459721061         9.747996140         4.915993985
    23.717201658        23.005476785         4.915993985
    16.245302131         9.609932008         6.082049901
     2.987821486        22.867412606         6.082049901
    10.269659064        16.905029282         6.082049901
    23.527139709         3.647548684         6.082049901
     3.647548637         2.987821533         6.082049901
    16.905029235        16.245302178         6.082049901
    22.867412559        23.527139756         6.082049901
     9.609931961        10.269659111         6.082049901
     4.963422274        22.472831879         7.506692985
    18.220902919         9.215351281         7.506692985
    21.551538922         4.042129411         7.506692985
     8.294058277        17.299610009         7.506692985
    17.299609962        18.220902966         7.506692985
     4.042129364         4.963422321         7.506692985
     9.215351234         8.294058324         7.506692985
    22.472831832        21.551538969         7.506692985
     5.905587287        21.677404978         8.055507786
    19.163067932         8.419924380         8.055507786
    20.609373908         4.837556312         8.055507786
     7.351893263        18.095036909         8.055507786
    18.095036862        19.163067979         8.055507786
     4.837556265         5.905587334         8.055507786
     8.419924333         7.351893311         8.055507786
    21.677404931        20.609373955         8.055507786
    19.160331209         6.929423735         7.862035470
     5.902850564        20.186904332         7.862035470
     7.354629987        19.585537555         7.862035470
    20.612110632         6.328056957         7.862035470
     6.328056910         5.902850611         7.862035470
    19.585537508        19.160331256         7.862035470
    20.186904285        20.612110679         7.862035470
     6.929423687         7.354630034         7.862035470
    18.341736456         6.588465308         6.646278054
     5.084255811        19.845945906         6.646278054
     8.173224740        19.926495981         6.646278054
    21.430705384         6.669015384         6.646278054
     6.669015336         5.084255858         6.646278054
    19.926495934        18.341736503         6.646278054
    19.845945859        21.430705432         6.646278054
     6.588465261         8.173224787         6.646278054
    17.429589020         7.445819508         6.142026437
     4.172108376        20.703300105         6.142026437
     9.085372175        19.069141782         6.142026437
    22.342852820         5.811661184         6.142026437
     5.811661137         4.172108423         6.142026437
    19.069141735        17.429589068         6.142026437
    20.703300058        22.342852867         6.142026437
     7.445819461         9.085372222         6.142026437
    17.250371697         8.724798210         6.650526848
     3.992891053        21.982278808         6.650526848
     9.264589498        17.790163080         6.650526848
    22.522070143         4.532682482         6.650526848
     4.532682435         3.992891100         6.650526848
    17.790163032        17.250371745         6.650526848
    21.982278761        22.522070190         6.650526848
     8.724798163         9.264589545         6.650526848
     1.463275251        25.414450079         5.142756244
    14.720755896        12.156969482         5.142756244
    25.051685944         1.100511210         5.142756244
    11.794205299        14.357991808         5.142756244
    14.357991761        14.720755943         5.142756244
     1.100511163         1.463275298         5.142756244
    12.156969435        11.794205347         5.142756244
    25.414450032        25.051685991         5.142756244
     2.703083544        25.441054257         2.922412195
    15.960564189        12.183573659         2.922412195
    23.811877652         1.073907033         2.922412195
    10.554397007        14.331387631         2.922412195
    14.331387583        15.960564236         2.922412195
     1.073906986         2.703083591         2.922412195
    12.183573612        10.554397054         2.922412195
    25.441054210        23.811877699         2.922412195
    14.523993967        10.131195793         3.561269235
     1.266513322        23.388676391         3.561269235
    11.990967229        16.383765496         3.561269235
    25.248447874         3.126284899         3.561269235
     3.126284851         1.266513369         3.561269235
    16.383765449        14.523994014         3.561269235
    23.388676344        25.248447921         3.561269235
    10.131195746        11.990967276         3.561269235
