Generated by VASPKIT code
 1.000000
   20.0248451233000004    0.0000000000000000    0.0000000000000000
    0.0000000000000012   20.0248451233000004    0.0000000000000000
    0.0000000000000009    0.0000000000000009   15.0000000000000000
   Cr   N    C    S    O    H 
     2    24    40    16     8    40
Cartesian
    0.0000000000000003    0.0000000000000003    4.8903727230000005    Cr001
   10.0124225149999990   10.0124226090000015    4.8903727230000005    Cr002
   10.9574697612765171    8.3852420258724223    4.9969308920000000     N001
    0.9450471522765228   18.3976645408724195    4.9969308920000000     N002
    9.0673752677234791   11.6396031911275752    4.9969308920000000     N003
   19.0797978767234753    1.6271806771275781    4.9969308920000000     N004
    1.6271805831275781    0.9450472462765204    4.9969308920000000     N005
   11.6396030971275781   10.9574698552765213    4.9969308920000000     N006
   18.3976644468724224   19.0797979707234830    4.9969308920000000     N007
    8.3852419318724216    9.0673753617234798    4.9969308920000000     N008
   13.7084796384328413    6.1317736916998324    7.9153768790000010     N009
    3.6960570294328439   16.1441962066998315    7.9153768790000010     N010
    6.3163653915671594   13.8930715253001704    7.9153768790000010     N011
   16.3287879995671545    3.8806490103001710    7.9153768790000010     N012
    3.8806489163001712    3.6960571234328419    7.9153768790000010     N013
   13.8930714313001662   13.7084797324328438    7.9153768790000010     N014
   16.1441961126998343   16.3287880935671623    7.9153768790000010     N015
    6.1317735976998318    6.3163654855671600    7.9153768790000010     N016
    4.8675217753835538   16.4689915366979314    5.9264951700000008     N017
   14.8799443843835544    6.4565690226979369    5.9264951700000008     N018
   15.1573232536164468    3.5558536803020639    5.9264951700000008     N019
    5.1449006446164489   13.5682761953020652    5.9264951700000008     N020
   13.5682761013020645   14.8799444783835533    5.9264951700000008     N021
    3.5558535863020642    4.8675218693835527    5.9264951700000008     N022
    6.4565689286979353    5.1449007386164460    5.9264951700000008     N023
   16.4689914426979378   15.1573233476164457    5.9264951700000008     N024
    2.2016971247283195   18.0299959556702767    5.3775428359999999     C001
   12.2141197337283192    8.0175734406702759    5.3775428359999999     C002
   17.8231479042716821    1.9948492613297244    5.3775428359999999     C003
    7.8107252952716832   12.0072717763297252    5.3775428359999999     C004
   12.0072716823297228   12.2141198277283181    5.3775428359999999     C005
    1.9948491673297246    2.2016972187283170    5.3775428359999999     C006
    8.0175733466702770    7.8107253892716830    5.3775428359999999     C007
   18.0299958616702725   17.8231479982716863    5.3775428359999999     C008
   12.3748858312524899    6.5770445131796027    5.9549022000000011     C009
    2.3624632222524906   16.5894670281796017    5.9549022000000011     C010
    7.6499591977475143   13.4478007038203948    5.9549022000000011     C011
   17.6623818067475113    3.4353781888203985    5.9549022000000011     C012
    3.4353780948203982    2.3624633162524886    5.9549022000000011     C013
   13.4478006098203977   12.3748859252524870    5.9549022000000011     C014
   16.5894669341796046   17.6623819007475120    5.9549022000000011     C015
    6.5770444191796029    7.6499592917475114    5.9549022000000011     C016
    3.7535463481823248   16.3839104862395573    6.5312287360000010     C017
   13.7659689571823236    6.3714879712395591    6.5312287360000010     C018
   16.2712986808176758    3.6409347307604407    6.5312287360000010     C019
    6.2588760718176779   13.6533572457604375    6.5312287360000010     C020
   13.6533571517604404   13.7659690511823225    6.5312287360000010     C021
    3.6409346367604418    3.7535464421823233    6.5312287360000010     C022
    6.3714878772395611    6.2588761658176777    6.5312287360000010     C023
   16.3839103922395601   16.2712987748176801    6.5312287360000010     C024
   12.4694502367184867    6.2078632900674071    8.4964184539999987     C025
    2.4570276277184893   16.2202858040674052    8.4964184539999987     C026
    7.5553947922815157   13.8169819279325949    8.4964184539999987     C027
   17.5678174012815127    3.8045594129325964    8.4964184539999987     C028
    3.8045593189325970    2.4570277217184868    8.4964184539999987     C029
   13.8169818339325978   12.4694503307184874    8.4964184539999987     C030
   16.2202857100674045   17.5678174952815134    8.4964184539999987     C031
    6.2078631960674073    7.5553948862815146    8.4964184539999987     C032
    4.8758550118149504   15.7839506867761727    8.6838896029999990     C033
   14.8882776198149447    5.7715281717761728    8.6838896029999990     C034
   15.1489900171850547    4.2408945312238293    8.6838896029999990     C035
    5.1365674091850559   14.2533170452238291    8.6838896029999990     C036
   14.2533169512238320   14.8882777138149507    8.6838896029999990     C037
    4.2408944372238286    4.8758551058149484    8.6838896029999990     C038
    5.7715280777761730    5.1365675031850531    8.6838896029999990     C039
   15.7839505927761738   15.1489901111850536    8.6838896029999990     C040
   11.2037473754645944    6.3414216491845607    7.3304809879999997     S001
    1.1913247664645983   16.3538441641845580    7.3304809879999997     S002
    8.8210976535354053   13.6834235678154421    7.3304809879999997     S003
   18.8335202625354050    3.6710010538154414    7.3304809879999997     S004
    3.6710009598154412    1.1913248604645958    7.3304809879999997     S005
   13.6834234738154397   11.2037474694645933    7.3304809879999997     S006
   16.3538440701845609   18.8335203565354021    7.3304809879999997     S007
    6.3414215551845627    8.8210977475354024    7.3304809879999997     S008
   12.1059993638040169    6.1987530506552053   10.1096272769999995     S009
    2.0935767558040190   16.2111755646552069   10.1096272769999995     S010
    7.9188456651959864   13.8260921663447949   10.1096272769999995     S011
   17.9312682741959826    3.8136696523447955   10.1096272769999995     S012
    3.8136695583447953    2.0935768498040166   10.1096272769999995     S013
   13.8260920723447960   12.1059994578040158   10.1096272769999995     S014
   16.2111754706552027   17.9312683681959868   10.1096272769999995     S015
    6.1987529566552091    7.9188457591959853   10.1096272769999995     S016
    3.1806360745806344   18.7913327278608868    5.3433537460000000     O001
   13.1930586825806326    8.7789102138608861    5.3433537460000000     O002
   16.8442089554193686    1.2335124891391152    5.3433537460000000     O003
    6.8317863464193707   11.2459350041391133    5.3433537460000000     O004
   11.2459349101391162   13.1930587765806298    5.3433537460000000     O005
    1.2335123951391156    3.1806361685806306    5.3433537460000000     O006
    8.7789101198608854    6.8317864404193696    5.3433537460000000     O007
   18.7913326338608826   16.8442090494193693    5.3433537460000000     O008
   10.2816887178097360    7.5828406305279623    4.9928542010000001     H001
    0.2692661088097376   17.5952631455279622    4.9928542010000001     H002
    9.7431563111902673   12.4420045864720379    4.9928542010000001     H003
   19.7555789201902634    2.4295820714720380    4.9928542010000001     H004
    2.4295819774720386    0.2692662028097355    4.9928542010000001     H005
   12.4420044924720390   10.2816888118097332    4.9928542010000001     H006
   17.5952630515279616   19.7555790141902605    4.9928542010000001     H007
    7.5828405365279625    9.7431564051902644    4.9928542010000001     H008
   12.1813243192399874    5.8327705223623818    5.1567911639999995     H009
    2.1689017102399859   15.8451930363623816    5.1567911639999995     H010
    7.8435207107600178   14.1920746946376184    5.1567911639999995     H011
   17.8559433187600156    4.1796521806376177    5.1567911639999995     H012
    4.1796520866376179    2.1689018042399844    5.1567911639999995     H013
   14.1920746006376177   12.1813244132399845    5.1567911639999995     H014
   15.8451929423623863   17.8559434127600163    5.1567911639999995     H015
    5.8327704283623829    7.8435208047600167    5.1567911639999995     H016
    4.6978809035561602   16.1310612251052881    9.7080070100000011     H017
   14.7103035125561554    6.1186387111052927    9.7080070100000011     H018
   15.3269641254438440    3.8937839918947099    9.7080070100000011     H019
    5.3145415164438452   13.9062065068947103    9.7080070100000011     H020
   13.9062064128947114   14.7103036065561579    9.7080070100000011     H021
    3.8937838978947106    4.6978809975561582    9.7080070100000011     H022
    6.1186386171052911    5.3145416104438432    9.7080070100000011     H023
   16.1310611311052909   15.3269642194438447    9.7080070100000011     H024
    5.7291295337566419   16.3227371867870019    8.2557754799999987     H025
   15.7415521427566389    6.3103146727870030    8.2557754799999987     H026
   14.2957154952433623    3.7021080302129996    8.2557754799999987     H027
    4.2832928862433644   13.7145305452130000    8.2557754799999987     H028
   13.7145304512130011   15.7415522367566378    8.2557754799999987     H029
    3.7021079362130007    5.7291296277566381    8.2557754799999987     H030
    6.3103145787870014    4.2832929802433632    8.2557754799999987     H031
   16.3227370927870012   14.2957155892433629    8.2557754799999987     H032
    4.7202721302905921   16.6919236993155060    4.9362502629999998     H033
   14.7326947392905900    6.6795011843155088    4.9362502629999998     H034
   15.3045728987094094    3.3329215186844934    4.9362502629999998     H035
    5.2921502897094124   13.3453440326844923    4.9362502629999998     H036
   13.3453439386844988   14.7326948332905925    4.9362502629999998     H037
    3.3329214246844945    4.7202722242905910    4.9362502629999998     H038
    6.6795010903155072    5.2921503837094086    4.9362502629999998     H039
   16.6919236053155124   15.3045729927094118    4.9362502629999998     H040
