K-Path Generated by VASPKIT.
   10
Line-Mode
Reciprocal
   0.0000000000   0.0000000000   0.0000000000     GAMMA          
   0.5000000000   0.0000000000   0.0000000000     X1              
 
   0.5000000000   0.0000000000   0.0000000000     X1              
   0.5000000000   0.5000000000   0.0000000000     M1              
 
   0.5000000000   0.5000000000   0.0000000000     M1              
   0.0000000000   0.0000000000   0.0000000000     GAMMA   

   0.0000000000   0.0000000000   0.0000000000     GAMMA
  -0.5000000000   0.5000000000   0.0000000000     M2

  -0.5000000000   0.5000000000   0.0000000000     M2
   0.0000000000   0.5000000000   0.0000000000     X2

   0.0000000000   0.5000000000   0.0000000000     X2
   0.0000000000   0.0000000000   0.0000000000     GAMMA





       
 
