Cr2 H24 C32 N16 O16
1.0
  12.0073220996687020  -12.0073220878322484    0.0000000000000000
  12.0073220878322502   12.0073220996687038    0.0000000000000010
  -0.0000000000000002   -0.0000000000000002    6.2360176707211741
Cr H C N O
2 24 32 16 16
direct
   0.0000000000000000    0.0000000000000000    0.6131530539046556 Cr
   0.5000000000000000    0.4999999999999999    0.6131530539046556 Cr
   0.8760823472356054    0.5971543558208209    0.6492915180995297 H
   0.3760823472356054    0.0971543558208208    0.6492915180995298 H
   0.1239176527643946    0.4028456441791787    0.6492915180995296 H
   0.6239176527643947    0.9028456441791788    0.6492915180995297 H
   0.9028456441791789    0.3760823472356052    0.6492915180995296 H
   0.4028456441791789    0.8760823472356052    0.6492915180995297 H
   0.0971543558208211    0.6239176527643944    0.6492915180995297 H
   0.5971543558208211    0.1239176527643941    0.6492915180995298 H
   0.8779632659376917    0.6065910774940155    0.3661461977553201 H
   0.3779632659376918    0.1065910774940155    0.3661461977553201 H
   0.1220367340623085    0.3934089225059842    0.3661461977553202 H
   0.6220367340623085    0.8934089225059841    0.3661461977553201 H
   0.8934089225059842    0.3779632659376915    0.3661461977553202 H
   0.3934089225059842    0.8779632659376915    0.3661461977553201 H
   0.1065910774940156    0.6220367340623083    0.3661461977553201 H
   0.6065910774940158    0.1220367340623083    0.3661461977553201 H
   0.8149924810537551    0.5350741172609781    0.4870365828611767 H
   0.3149924810537550    0.0350741172609779    0.4870365828611767 H
   0.1850075189462485    0.4649258827390255    0.4870365828611767 H
   0.6850075189462485    0.9649258827390254    0.4870365828611767 H
   0.9649258827390219    0.3149924810537551    0.4870365828611767 H
   0.4649258827390219    0.8149924810537550    0.4870365828611767 H
   0.0350741172609745    0.6850075189462485    0.4870365828611767 H
   0.5350741172609745    0.1850075189462483    0.4870365828611767 H
   0.6473088198824506    0.5731648632292681    0.4676330493098905 C
   0.1473088198824506    0.0731648632292681    0.4676330493098905 C
   0.3526911801175496    0.4268351367707317    0.4676330493098905 C
   0.8526911801175495    0.9268351367707317    0.4676330493098905 C
   0.9268351367707317    0.1473088198824504    0.4676330493098905 C
   0.4268351367707317    0.6473088198824504    0.4676330493098905 C
   0.0731648632292681    0.8526911801175493    0.4676330493098906 C
   0.5731648632292681    0.3526911801175492    0.4676330493098905 C
   0.6919260714933468    0.6460877732701524    0.5105219721574830 C
   0.1919260714933469    0.1460877732701524    0.5105219721574829 C
   0.3080739285066565    0.3539122267298512    0.5105219721574830 C
   0.8080739285066565    0.8539122267298510    0.5105219721574830 C
   0.8539122267298477    0.1919260714933470    0.5105219721574830 C
   0.3539122267298477    0.6919260714933471    0.5105219721574830 C
   0.1460877732701490    0.8080739285066567    0.5105219721574830 C
   0.6460877732701489    0.3080739285066565    0.5105219721574830 C
   0.7741993229497758    0.6524123079051667    0.5142041030953476 C
   0.2741993229497758    0.1524123079051667    0.5142041030953476 C
   0.2258006770502247    0.3475876920948336    0.5142041030953476 C
   0.7258006770502248    0.8475876920948336    0.5142041030953477 C
   0.8475876920948332    0.2741993229497757    0.5142041030953477 C
   0.3475876920948332    0.7741993229497757    0.5142041030953477 C
   0.1524123079051664    0.7258006770502246    0.5142041030953477 C
   0.6524123079051665    0.2258006770502246    0.5142041030953477 C
   0.8393947065053402    0.5944805819564770    0.5040957254875598 C
   0.3393947065053402    0.0944805819564769    0.5040957254875598 C
   0.1606052934946635    0.4055194180435195    0.5040957254875598 C
   0.6606052934946636    0.9055194180435195    0.5040957254875599 C
   0.9055194180435194    0.3393947065053367    0.5040957254875599 C
   0.4055194180435194    0.8393947065053367    0.5040957254875599 C
   0.0944805819564769    0.6606052934946598    0.5040957254875598 C
   0.5944805819564768    0.1606052934946598    0.5040957254875598 C
   0.1541357016612784    0.2172633007225256    0.5238305117001150 N
   0.6541357016612783    0.7172633007225255    0.5238305117001150 N
   0.8458642983387217    0.7827366992774740    0.5238305117001150 N
   0.3458642983387218    0.2827366992774740    0.5238305117001150 N
   0.2827366992774741    0.6541357016612781    0.5238305117001150 N
   0.7827366992774741    0.1541357016612781    0.5238305117001149 N
   0.7172633007225258    0.3458642983387215    0.5238305117001151 N
   0.2172633007225258    0.8458642983387215    0.5238305117001150 N
   0.2133276872746686    0.2680960080559070    0.5307013674057840 N
   0.7133276872746686    0.7680960080559069    0.5307013674057840 N
   0.7866723127253241    0.7319039919440998    0.5307013674057840 N
   0.2866723127253241    0.2319039919440997    0.5307013674057840 N
   0.2319039919441001    0.7133276872746757    0.5307013674057840 N
   0.7319039919441001    0.2133276872746757    0.5307013674057840 N
   0.7680960080559072    0.2866723127253312    0.5307013674057840 N
   0.2680960080559072    0.7866723127253311    0.5307013674057840 N
   0.5779591186049897    0.5701883507068783    0.5719544888208234 O
   0.0779591186049897    0.0701883507068783    0.5719544888208234 O
   0.4220408813950142    0.4298116492931249    0.5719544888208234 O
   0.9220408813950141    0.9298116492931248    0.5719544888208236 O
   0.9298116492931213    0.0779591186049895    0.5719544888208234 O
   0.4298116492931214    0.5779591186049895    0.5719544888208234 O
   0.0701883507068748    0.9220408813950138    0.5719544888208236 O
   0.5701883507068748    0.4220408813950138    0.5719544888208234 O
   0.6707811486094706    0.5218158048325418    0.3462862198307994 O
   0.1707811486094706    0.0218158048325416    0.3462862198307995 O
   0.3292188513905439    0.4781841951674657    0.3462862198307995 O
   0.8292188513905439    0.9781841951674657    0.3462862198307995 O
   0.9781841951674548    0.1707811486094671    0.3462862198307995 O
   0.4781841951674548    0.6707811486094670    0.3462862198307994 O
   0.0218158048325308    0.8292188513905403    0.3462862198307995 O
   0.5218158048325308    0.3292188513905401    0.3462862198307995 O
