Generated by VASPKIT code
 1.000000
   20.5567703247000004    0.0000000000000000    0.0000000000000000
    0.0000000000000013   20.5567703247000004    0.0000000000000000
    0.0000000000000009    0.0000000000000009   15.0000000000000000
   Cr   H    C    N    O 
     2    72    72     8     8
Cartesian
    0.0000000000000009    0.0000000000000009    9.4489438714999991    Cr001
   10.2783851188999940   10.2783852060999976    9.4489438714999991    Cr002
    2.0118972047797952    0.6160192690490061    7.0644623304999996     H001
   12.2902823236797936   10.8944044751490079    7.0644623304999996     H002
   18.5448730320202060   19.9407511421509938    7.0644623304999996     H003
    8.2664879141202068    9.6623659370509927    7.0644623304999996     H004
    9.6623658498509943   12.2902824108797954    7.0644623304999996     H005
   19.9407510559509902    2.0118972919797948    7.0644623304999996     H006
   10.8944043879490060    8.2664880003202033    7.0644623304999996     H007
    0.6160191818490084   18.5448731192202025    7.0644623304999996     H008
    3.9067385691021301    0.2239614921060695    5.5250615234999998     H009
   14.1851236880021290   10.5023466982060700    5.5250615234999998     H010
   16.6500316686978707   20.3328089190939281    5.5250615234999998     H011
    6.3716465497978731   10.0544237139939288    5.5250615234999998     H012
   10.0544236267939304   14.1851237752021273    5.5250615234999998     H013
   20.3328088318939280    3.9067386563021302    5.5250615234999998     H014
   10.5023466110060699    6.3716466369978697    5.5250615234999998     H015
    0.2239614049060716   16.6500317558978708    5.5250615234999998     H016
    5.5019433475214772   18.9375440006239799    5.9388735545000007     H017
   15.7803285536214730    8.6591588817239842    5.9388735545000007     H018
   15.0548268902785232    1.6192264105760157    5.9388735545000007     H019
    4.7764416841785264   11.8976115294760181    5.9388735545000007     H020
   11.8976114422760197   15.7803286408214767    5.9388735545000007     H021
    1.6192263233760162    5.5019434347214755    5.9388735545000007     H022
    8.6591587955239842    4.7764417713785248    5.9388735545000007     H023
   18.9375439144239834   15.0548269774785251    5.9388735545000007     H024
    3.3050336376433744   17.8610989740071631    9.4749384765000002     H025
   13.5834188437433703    7.5827138551071647    9.4749384765000002     H026
   17.2517366001566259    2.6956714381928339    9.4749384765000002     H027
    6.9733513940566292   12.9740565570928350    9.4749384765000002     H028
   12.9740564698928331   13.5834189309433739    9.4749384765000002     H029
    2.6956713509928352    3.3050337248433719    9.4749384765000002     H030
    7.5827137679071654    6.9733514812566275    9.4749384765000002     H031
   17.8610988868071630   17.2517366873566260    9.4749384765000002     H032
    6.6213905747218096   17.7338362301102848    7.8304172525000002     H033
   16.8997757808218054    7.4554511112102873    7.8304172525000002     H034
   13.9353796630781890    2.8229341820897149    7.8304172525000002     H035
    3.6569944569781927   13.1013193009897133    7.8304172525000002     H036
   13.1013192137897168   16.8997758680218091    7.8304172525000002     H037
    2.8229340948897153    6.6213906619218097    7.8304172525000002     H038
    7.4554510240102854    3.6569945441781910    7.8304172525000002     H039
   17.7338361429102847   13.9353797492781890    7.8304172525000002     H040
   12.7519377916365340    4.2911333520611183    7.9435266154999997     H041
    2.4735525855365350   14.5695184709611123    7.9435266154999997     H042
    7.8048324461634673   16.2656370601388822    7.9435266154999997     H043
   18.0832176512634639    5.9872519412388838    7.9435266154999997     H044
    5.9872518540388828    2.4735526727365347    7.9435266154999997     H045
   16.2656369729388857   12.7519378788365341    7.9435266154999997     H046
   14.5695183837611211   18.0832177384634640    7.9435266154999997     H047
    4.2911332648611200    7.8048325333634665    7.9435266154999997     H048
   13.2006259371378487    5.7660622718633441    8.8039489364999994     H049
    2.9222407310378506   16.0444473907633380    8.8039489364999994     H050
    7.3561443006621543   14.7907081403366565    8.8039489364999994     H051
   17.6345295067621528    4.5123230214366581    8.8039489364999994     H052
    4.5123229342366580    2.9222408182378490    8.8039489364999994     H053
   14.7907080531366546   13.2006260243378470    8.8039489364999994     H054
   16.0444473035633450   17.6345295939621458    8.8039489364999994     H055
    5.7660621846633457    7.3561443878621526    8.8039489364999994     H056
   13.1935577545485430    5.4815842648034456    5.8150094115000002     H057
    2.9151725494485432   15.7599693837034458    5.8150094115000002     H058
    7.3632124832514609   15.0751861473965540    5.8150094115000002     H059
   17.6415976883514567    4.7968010284965539    5.8150094115000002     H060
    4.7968009412965538    2.9151726356485415    5.8150094115000002     H061
   15.0751860601965522   13.1935578417485395    5.8150094115000002     H062
   15.7599692965034457   17.6415977755514604    5.8150094115000002     H063
    5.4815841776034464    7.3632125694514574    5.8150094115000002     H064
   13.5220170241044535    6.8320634805868412    6.7212740795000006     H065
    3.2436318180044550   17.1104485994868405    6.7212740795000006     H066
    7.0347532136955477   13.7247069306131575    6.7212740795000006     H067
   17.3131384197955462    3.4463218117131600    6.7212740795000006     H068
    3.4463217245131590    3.2436319052044538    6.7212740795000006     H069
   13.7247068434131556   13.5220171113044501    6.7212740795000006     H070
   17.1104485132868369   17.3131385069955428    6.7212740795000006     H071
    6.8320633943868385    7.0347533008955470    6.7212740795000006     H072
    2.5367626977192130   19.5042435614967680    8.3364040794999994     C001
   12.8151479038192129    9.2258584425967634    8.3364040794999994     C002
   18.0200075400807869    1.0525268507032348    8.3364040794999994     C003
    7.7416223339807919   11.3309119696032319    8.3364040794999994     C004
   11.3309118824032335   12.8151479900192111    8.3364040794999994     C005
    1.0525267635032354    2.5367627849192109    8.3364040794999994     C006
    9.2258583553967650    7.7416224211807902    8.3364040794999994     C007
   19.5042434742967643   18.0200076272807870    8.3364040794999994     C008
    2.6820489296783134   20.3351170767279363    7.2287713754999992     C009
   12.9604341357783088   10.0567319578279335    7.2287713754999992     C010
   17.8747213081216891    0.2216533344720656    7.2287713754999992     C011
    7.5963361020216915   10.5000384533720652    7.2287713754999992     C012
   10.5000383661720615   12.9604342219783071    7.2287713754999992     C013
    0.2216532472720660    2.6820490168783104    7.2287713754999992     C014
   10.0567318716279335    7.5963361892216872    7.2287713754999992     C015
   20.3351169905279328   17.8747213953216892    7.2287713754999992     C016
    3.7739999424518396   20.1258290799812301    6.3821868305000002     C017
   14.0523851485518367    9.8474439610812290    6.3821868305000002     C018
   16.7827702953481648    0.4309413312187702    6.3821868305000002     C019
    6.5043850892481654   10.7093264501187662    6.3821868305000002     C020
   10.7093263629187643   14.0523852357518368    6.3821868305000002     C021
    0.4309412440187706    3.7740000296518370    6.3821868305000002     C022
    9.8474438738812307    6.5043851764481628    6.3821868305000002     C023
   20.1258289927812264   16.7827703815481613    6.3821868305000002     C024
    4.7192356377466425   19.1469863639912425    6.6696218754999990     C025
   14.9976208438466401    8.8686012450912450    6.6696218754999990     C026
   15.8375346000533579    1.4097840482087545    6.6696218754999990     C027
    5.5591493939533585   11.6881691671087520    6.6696218754999990     C028
   11.6881690799087536   14.9976209310466420    6.6696218754999990     C029
    1.4097839610087548    4.7192357249466408    6.6696218754999990     C030
    8.8686011578912449    5.5591494811533577    6.6696218754999990     C031
   19.1469862767912424   15.8375346872533580    6.6696218754999990     C032
    4.5965375778172559   18.3126068069514893    7.7900635194999994     C033
   14.8749227839172526    8.0342216880514918    7.7900635194999994     C034
   15.9602326599827489    2.2441636042485089    7.7900635194999994     C035
    5.6818474538827504   12.5225487231485104    7.7900635194999994     C036
   12.5225486359485121   14.8749228711172492    7.7900635194999994     C037
    2.2441635170485101    4.5965376650172534    7.7900635194999994     C038
    8.0342216018514918    5.6818475410827478    7.7900635194999994     C039
   18.3126067207514858   15.9602327471827454    7.7900635194999994     C040
    3.5105419600593022   18.5200570317486601    8.6452199635000007     C041
   13.7889271661592971    8.2416719128486626    8.6452199635000007     C042
   17.0462282777406955    2.0367133804513387    8.6452199635000007     C043
    6.7678430716407032   12.3150984983513361    8.6452199635000007     C044
   12.3150984121513378   13.7889272533592973    8.6452199635000007     C045
    2.0367132932513381    3.5105420472593005    8.6452199635000007     C046
    8.2416718256486607    6.7678431588407006    8.6452199635000007     C047
   18.5200569445486636   17.0462283649406992    8.6452199635000007     C048
    5.6289178326678080   17.2681821856999775    7.9153692124999990     C049
   15.9073030387678038    6.9897970667999783    7.9153692124999990     C050
   14.9278524041321923    3.2885882255000216    7.9153692124999990     C051
    4.6494671990321983   13.5669733444000205    7.9153692124999990     C052
   13.5669732572000221   15.9073031259678022    7.9153692124999990     C053
    3.2885881383000224    5.6289179198678045    7.9153692124999990     C054
    6.9897969805999800    4.6494672852321965    7.9153692124999990     C055
   17.2681820994999811   14.9278524913321959    7.9153692124999990     C056
    5.6920640832088534   15.9062611812350809    7.9315218554999989     C057
   15.9704492893088474    5.6278760623350870    7.9315218554999989     C058
   14.8647061545911487    4.6505092309649161    7.9315218554999989     C059
    4.5863209484911511   14.9288943498649118    7.9315218554999989     C060
   14.9288942626649188   15.9704493765088493    7.9315218554999989     C061
    4.6505091437649160    5.6920641704088508    7.9315218554999989     C062
    5.6278759751350860    4.5863210356911486    7.9315218554999989     C063
   15.9062610940350861   14.8647062407911488    7.9315218554999989     C064
   13.4254821742907069    5.1579903037687949    7.8711892715000005     C065
    3.1470969681907084   15.4363754226687959    7.8711892715000005     C066
    7.1312880635092961   15.3987801084312022    7.8711892715000005     C067
   17.4096732686092928    5.1203949895312046    7.8711892715000005     C068
    5.1203949023312045    3.1470970553907072    7.8711892715000005     C069
   15.3987800212312020   13.4254822614907052    7.8711892715000005     C070
   15.4363753354687976   17.4096733558092929    7.8711892715000005     C071
    5.1579902165687956    7.1312881497092935    7.8711892715000005     C072
   13.0089508495657693    5.9515782142390696    6.7491367735000001     N001
    2.7305656434657708   16.2299633331390716    6.7491367735000001     N002
    7.5478193882342310   14.6051921979609283    6.7491367735000001     N003
   17.8262045943342322    4.3268070790609290    6.7491367735000001     N004
    4.3268069918609298    2.7305657306657682    6.7491367735000001     N005
   14.6051921107609282   13.0089509367657623    6.7491367735000001     N006
   16.2299632459390679   17.8262046815342288    6.7491367735000001     N007
    5.9515781270390713    7.5478194754342312    6.7491367735000001     N008
    1.5073410698898215   19.6021174097733493    9.1813393864999995     O001
   11.7857262759898127    9.3237322908733500    9.1813393864999995     O002
   19.0494291679101799    0.9546530024266503    9.1813393864999995     O003
    8.7710439618101805   11.2330381213266488    9.1813393864999995     O004
   11.2330380341266505   11.7857263631898146    9.1813393864999995     O005
    0.9546529152266506    1.5073411570898194    9.1813393864999995     O006
    9.3237322036733481    8.7710440490101806    9.1813393864999995     O007
   19.6021173225733492   19.0494292551101800    9.1813393864999995     O008
