Cr2 H32 C56 N8
1.0
  13.8717410730370236  -13.8717410864719142    0.0000000000000000
  13.8717410864719159   13.8717410730370254    0.0000000000000014
  -0.0000000000000001   -0.0000000000000001   12.9366083285044162
Cr H C N
2 32 56 8
direct
   0.0000000000000000    0.0000000000000000    0.5000000000000000 Cr
   0.4999999999999999    0.5000000000000000    0.5000000000000001 Cr
   0.0174159947132981    0.2062168513295177    0.5000000000000000 H
   0.5174159947132980    0.7062168513295177    0.5000000000000000 H
   0.9825840052867016    0.7937831486704823    0.5000000000000000 H
   0.4825840052867014    0.2937831486704823    0.5000000000000001 H
   0.2937831486704823    0.5174159947132982    0.5000000000000000 H
   0.7937831486704823    0.0174159947132981    0.5000000000000001 H
   0.7062168513295177    0.4825840052867018    0.5000000000000001 H
   0.2062168513295177    0.9825840052867018    0.5000000000000001 H
   0.6447657321311611    0.5349949619218924    0.5000000000000000 H
   0.1447657321311610    0.0349949619218926    0.5000000000000001 H
   0.3552342678688390    0.4650050380781079    0.5000000000000001 H
   0.8552342678688390    0.9650050380781080    0.5000000000000001 H
   0.9650050380781077    0.1447657321311611    0.5000000000000000 H
   0.4650050380781076    0.6447657321311612    0.5000000000000000 H
   0.0349949619218921    0.8552342678688392    0.5000000000000000 H
   0.5349949619218921    0.3552342678688394    0.5000000000000001 H
   0.7805987978032878    0.6104424826885105    0.5000000000000000 H
   0.2805987978032878    0.1104424826885106    0.5000000000000001 H
   0.2194012021967154    0.3895575173114861    0.5000000000000001 H
   0.7194012021967153    0.8895575173114861    0.5000000000000001 H
   0.8895575173114861    0.2805987978032844    0.4999999999999999 H
   0.3895575173114860    0.7805987978032846    0.5000000000000000 H
   0.1104424826885106    0.7194012021967122    0.5000000000000000 H
   0.6104424826885106    0.2194012021967122    0.5000000000000001 H
   0.1217716792845004    0.3131810273265538    0.4999999999999999 H
   0.6217716792845003    0.8131810273265540    0.5000000000000000 H
   0.8782283207154997    0.6868189726734462    0.5000000000000000 H
   0.3782283207154995    0.1868189726734462    0.5000000000000001 H
   0.1868189726734460    0.6217716792845003    0.5000000000000000 H
   0.6868189726734459    0.1217716792845005    0.5000000000000001 H
   0.8131810273265538    0.3782283207154996    0.5000000000000001 H
   0.3131810273265536    0.8782283207154995    0.5000000000000001 H
   0.0633636464873159    0.1756336780207913    0.5000000000000000 C
   0.5633636464873159    0.6756336780207913    0.5000000000000000 C
   0.9366363535126874    0.8243663219792119    0.5000000000000000 C
   0.4366363535126873    0.3243663219792121    0.5000000000000001 C
   0.3243663219792086    0.5633636464873159    0.5000000000000000 C
   0.8243663219792086    0.0633636464873160    0.5000000000000001 C
   0.6756336780207880    0.4366363535126874    0.5000000000000001 C
   0.1756336780207879    0.9366363535126874    0.5000000000000001 C
   0.1298154508188652    0.2029692927167229    0.5000000000000000 C
   0.6298154508188650    0.7029692927167229    0.5000000000000000 C
   0.8701845491811345    0.7970307072832770    0.5000000000000000 C
   0.3701845491811344    0.2970307072832770    0.5000000000000001 C
   0.2970307072832770    0.6298154508188653    0.5000000000000000 C
   0.7970307072832771    0.1298154508188654    0.5000000000000001 C
   0.7029692927167231    0.3701845491811346    0.5000000000000001 C
   0.2029692927167230    0.8701845491811346    0.5000000000000001 C
   0.6753588500891894    0.6447526534281541    0.5000000000000000 C
   0.1753588500891894    0.1447526534281542    0.5000000000000001 C
   0.3246411499108109    0.3552473465718461    0.5000000000000001 C
   0.8246411499108108    0.8552473465718462    0.5000000000000001 C
   0.8552473465718458    0.1753588500891894    0.5000000000000000 C
   0.3552473465718458    0.6753588500891894    0.5000000000000000 C
   0.1447526534281537    0.8246411499108109    0.5000000000000000 C
   0.6447526534281538    0.3246411499108111    0.5000000000000001 C
   0.6318836264969452    0.5876154599590954    0.5000000000000000 C
   0.1318836264969451    0.0876154599590955    0.5000000000000001 C
   0.3681163735030548    0.4123845400409044    0.5000000000000001 C
   0.8681163735030546    0.9123845400409044    0.5000000000000001 C
   0.9123845400409045    0.1318836264969450    0.5000000000000000 C
   0.4123845400409044    0.6318836264969450    0.5000000000000000 C
   0.0876154599590954    0.8681163735030546    0.5000000000000000 C
   0.5876154599590955    0.3681163735030548    0.5000000000000001 C
   0.7457472001352664    0.6538982577493306    0.5000000000000000 C
   0.2457472001352663    0.1538982577493306    0.5000000000000001 C
   0.2542527998647332    0.3461017422506696    0.5000000000000001 C
   0.7542527998647330    0.8461017422506696    0.5000000000000001 C
   0.8461017422506696    0.2457472001352667    0.5000000000000000 C
   0.3461017422506696    0.7457472001352667    0.5000000000000000 C
   0.1538982577493305    0.7542527998647335    0.5000000000000000 C
   0.6538982577493304    0.2542527998647335    0.5000000000000001 C
   0.7730854601550289    0.7205008397508944    0.5000000000000000 C
   0.2730854601550288    0.2205008397508945    0.5000000000000001 C
   0.2269145398449709    0.2794991602491058    0.4999999999999999 C
   0.7269145398449709    0.7794991602491059    0.5000000000000000 C
   0.7794991602491058    0.2730854601550291    0.4999999999999999 C
   0.2794991602491057    0.7730854601550291    0.5000000000000000 C
   0.2205008397508943    0.7269145398449711    0.5000000000000000 C
   0.7205008397508943    0.2269145398449712    0.5000000000000001 C
   0.1556701493025309    0.2689801165741281    0.4999999999999999 C
   0.6556701493025309    0.7689801165741281    0.5000000000000000 C
   0.8443298506974687    0.7310198834258717    0.5000000000000000 C
   0.3443298506974686    0.2310198834258719    0.5000000000000001 C
   0.2310198834258720    0.6556701493025311    0.5000000000000000 C
   0.7310198834258719    0.1556701493025312    0.5000000000000001 C
   0.7689801165741283    0.3443298506974687    0.5000000000000001 C
   0.2689801165741283    0.8443298506974688    0.5000000000000001 C
   0.0646716459482344    0.1050842119915342    0.5000000000000000 N
   0.5646716459482343    0.6050842119915343    0.5000000000000000 N
   0.9353283540517656    0.8949157880084659    0.5000000000000000 N
   0.4353283540517656    0.3949157880084659    0.5000000000000001 N
   0.3949157880084657    0.5646716459482345    0.5000000000000000 N
   0.8949157880084657    0.0646716459482346    0.5000000000000001 N
   0.6050842119915342    0.4353283540517657    0.5000000000000001 N
   0.1050842119915341    0.9353283540517657    0.5000000000000001 N
