Cr2 H24 C64 O32
1.0
  15.2659984961618864  -15.2659984488393263    0.0000000000000000
  15.2659984488393281   15.2659984961618882    0.0000000000000010
  -0.0000000000000001   -0.0000000000000001   10.7063996067550704
Cr H C O
2 24 64 32
direct
   0.0000000000000000    0.0000000000000000    0.5313221980589382 Cr
   0.4999999999999999    0.4999999999999999    0.5313221980589383 Cr
   0.0259876124535067    0.2279398785698155    0.5189632013702481 H
   0.5259876124535066    0.7279398785698153    0.5189632013702481 H
   0.9740123875464923    0.7720601214301845    0.5189632013702481 H
   0.4740123875464923    0.2720601214301843    0.5189632013702481 H
   0.2720601214301850    0.5259876124535071    0.5189632013702482 H
   0.7720601214301850    0.0259876124535072    0.5189632013702481 H
   0.7279398785698159    0.4740123875464928    0.5189632013702482 H
   0.2279398785698158    0.9740123875464928    0.5189632013702481 H
   0.0459589752649144    0.3417804503447766    0.4945078537752404 H
   0.5459589752649144    0.8417804503447764    0.4945078537752405 H
   0.9540410247350855    0.6582195496552223    0.4945078537752405 H
   0.4540410247350855    0.1582195496552223    0.4945078537752405 H
   0.1582195496552230    0.5459589752649139    0.4945078537752405 H
   0.6582195496552229    0.0459589752649139    0.4945078537752405 H
   0.8417804503447770    0.4540410247350850    0.4945078537752405 H
   0.3417804503447771    0.9540410247350850    0.4945078537752405 H
   0.1563878185604655    0.3817527389491574    0.4936087666532121 H
   0.6563878185604655    0.8817527389491573    0.4936087666532122 H
   0.8436121814395335    0.6182472610508415    0.4936087666532122 H
   0.3436121814395335    0.1182472610508414    0.4936087666532122 H
   0.1182472610508424    0.6563878185604654    0.4936087666532122 H
   0.6182472610508423    0.1563878185604652    0.4936087666532122 H
   0.8817527389491584    0.3436121814395335    0.4936087666532121 H
   0.3817527389491584    0.8436121814395334    0.4936087666532122 H
   0.0718421440518202    0.1099199906303679    0.4691019907738959 C
   0.5718421440518201    0.6099199906303679    0.4691019907738960 C
   0.4281578559481790    0.3900800093696312    0.4691019907738959 C
   0.9281578559481789    0.8900800093696312    0.4691019907738960 C
   0.8900800093696321    0.0718421440518202    0.4691019907738959 C
   0.3900800093696321    0.5718421440518202    0.4691019907738960 C
   0.6099199906303688    0.4281578559481790    0.4691019907738959 C
   0.1099199906303688    0.9281578559481789    0.4691019907738959 C
   0.1231170438176642    0.2036892435269844    0.5250034639156193 C
   0.6231170438176642    0.7036892435269844    0.5250034639156191 C
   0.8768829561823364    0.7963107564730145    0.5250034639156191 C
   0.3768829561823363    0.2963107564730145    0.5250034639156193 C
   0.2963107564730147    0.6231170438176633    0.5250034639156191 C
   0.7963107564730147    0.1231170438176632    0.5250034639156193 C
   0.7036892435269846    0.3768829561823356    0.5250034639156193 C
   0.2036892435269845    0.8768829561823355    0.5250034639156191 C
   0.0731746038791810    0.2456704518176856    0.5153220321605058 C
   0.5731746038791810    0.7456704518176854    0.5153220321605058 C
   0.9268253961208199    0.7543295481823140    0.5153220321605058 C
   0.4268253961208198    0.2543295481823138    0.5153220321605059 C
   0.2543295481823138    0.5731746038791804    0.5153220321605059 C
   0.7543295481823138    0.0731746038791803    0.5153220321605059 C
   0.7456704518176854    0.4268253961208193    0.5153220321605058 C
   0.2456704518176853    0.9268253961208192    0.5153220321605058 C
   0.0848602264977903    0.3098174355362132    0.5019251180263712 C
   0.5848602264977902    0.8098174355362131    0.5019251180263712 C
   0.9151397735022080    0.6901825644637858    0.5019251180263712 C
   0.4151397735022080    0.1901825644637856    0.5019251180263712 C
   0.1901825644637871    0.5848602264977906    0.5019251180263713 C
   0.6901825644637870    0.0848602264977905    0.5019251180263712 C
   0.8098174355362145    0.4151397735022083    0.5019251180263712 C
   0.3098174355362145    0.9151397735022082    0.5019251180263712 C
   0.1459825901819742    0.3325137560978115    0.5006520757779520 C
   0.6459825901819741    0.8325137560978113    0.5006520757779520 C
   0.8540174098180271    0.6674862439021882    0.5006520757779520 C
   0.3540174098180271    0.1674862439021882    0.5006520757779520 C
   0.1674862439021877    0.6459825901819733    0.5006520757779520 C
   0.6674862439021876    0.1459825901819731    0.5006520757779520 C
   0.8325137560978109    0.3540174098180264    0.5006520757779520 C
   0.3325137560978109    0.8540174098180263    0.5006520757779520 C
   0.1971632288957165    0.2911043266592836    0.5092071378860099 C
   0.6971632288957164    0.7911043266592835    0.5092071378860099 C
   0.8028367711042868    0.7088956733407199    0.5092071378860099 C
   0.3028367711042866    0.2088956733407197    0.5092071378860100 C
   0.2088956733407165    0.6971632288957166    0.5092071378860099 C
   0.7088956733407163    0.1971632288957166    0.5092071378860100 C
   0.7911043266592839    0.3028367711042833    0.5092071378860099 C
   0.2911043266592838    0.8028367711042832    0.5092071378860099 C
   0.1863160729511990    0.2244850367298839    0.5172222574869478 C
   0.6863160729511988    0.7244850367298838    0.5172222574869478 C
   0.8136839270488008    0.7755149632701155    0.5172222574869478 C
   0.3136839270488006    0.2755149632701153    0.5172222574869478 C
   0.2755149632701159    0.6863160729511988    0.5172222574869478 C
   0.7755149632701158    0.1863160729511988    0.5172222574869478 C
   0.7244850367298844    0.3136839270488006    0.5172222574869478 C
   0.2244850367298843    0.8136839270488005    0.5172222574869478 C
   0.2605722169697318    0.3190695231187397    0.5099379382650442 C
   0.7605722169697318    0.8190695231187397    0.5099379382650441 C
   0.7394277830302682    0.6809304768812591    0.5099379382650441 C
   0.2394277830302682    0.1809304768812590    0.5099379382650442 C
   0.1809304768812596    0.7605722169697312    0.5099379382650441 C
   0.6809304768812596    0.2605722169697313    0.5099379382650442 C
   0.8190695231187404    0.2394277830302676    0.5099379382650442 C
   0.3190695231187403    0.7394277830302676    0.5099379382650441 C
   0.0655426998079927    0.0547858983674735    0.5161731515495136 O
   0.5655426998079928    0.5547858983674735    0.5161731515495137 O
   0.4344573001920070    0.4452141016325260    0.5161731515495138 O
   0.9344573001920070    0.9452141016325259    0.5161731515495137 O
   0.9452141016325264    0.0655426998079927    0.5161731515495137 O
   0.4452141016325263    0.5655426998079925    0.5161731515495138 O
   0.5547858983674739    0.4344573001920069    0.5161731515495137 O
   0.0547858983674739    0.9344573001920069    0.5161731515495137 O
   0.0512332128888814    0.1324535842193598    0.3741786820171397 O
   0.5512332128888814    0.6324535842193597    0.3741786820171398 O
   0.9487667871111191    0.8675464157806401    0.3741786820171398 O
   0.4487667871111189    0.3675464157806398    0.3741786820171398 O
   0.3675464157806398    0.5512332128888811    0.3741786820171398 O
   0.8675464157806398    0.0512332128888811    0.3741786820171398 O
   0.6324535842193597    0.4487667871111188    0.3741786820171398 O
   0.1324535842193595    0.9487667871111187    0.3741786820171398 O
   0.1126589166377305    0.1431004034743456    0.5496104771734306 O
   0.6126589166377304    0.6431004034743456    0.5496104771734305 O
   0.3873410833622696    0.3568995965256541    0.5496104771734306 O
   0.8873410833622696    0.8568995965256541    0.5496104771734305 O
   0.8568995965256542    0.1126589166377303    0.5496104771734306 O
   0.3568995965256541    0.6126589166377303    0.5496104771734305 O
   0.6431004034743457    0.3873410833622695    0.5496104771734306 O
   0.1431004034743456    0.8873410833622695    0.5496104771734305 O
   0.2662496083891590    0.3762168440022762    0.5018753036541403 O
   0.7662496083891590    0.8762168440022762    0.5018753036541402 O
   0.7337503916108412    0.6237831559977235    0.5018753036541402 O
   0.2337503916108413    0.1237831559977236    0.5018753036541403 O
   0.1237831559977235    0.7662496083891586    0.5018753036541402 O
   0.6237831559977234    0.2662496083891586    0.5018753036541403 O
   0.8762168440022763    0.2337503916108410    0.5018753036541403 O
   0.3762168440022763    0.7337503916108410    0.5018753036541402 O
