Cr2 H32 C48 S16 O48
1.0
  15.2844410228255327  -15.2844412642237426    0.0000000000000000
  15.2844412642237444   15.2844410228255345    0.0000000000000016
  -0.0000000000000002   -0.0000000000000002   17.6781003577977422
Cr H C S O
2 32 48 16 48
direct
   0.0000000000000000    0.0000000000000000    0.5202045855044449 Cr
   0.4999999999999999    0.4999999999999999    0.5202045855044449 Cr
   0.0793519819852398    0.2461447936415854    0.4075586580306614 H
   0.5793519819852397    0.7461447936415855    0.4075586580306614 H
   0.9206480180147600    0.7538552063584149    0.4075586580306614 H
   0.4206480180147599    0.2538552063584150    0.4075586580306614 H
   0.2538552063584147    0.5793519819852400    0.4075586580306614 H
   0.7538552063584147    0.0793519819852400    0.4075586580306614 H
   0.7461447936415853    0.4206480180147604    0.4075586580306614 H
   0.2461447936415853    0.9206480180147603    0.4075586580306614 H
   0.1791347019398125    0.3020537360754605    0.4227114323201389 H
   0.6791347019398124    0.8020537360754605    0.4227114323201389 H
   0.8208652980601906    0.6979462639245357    0.4227114323201388 H
   0.3208652980601905    0.1979462639245355    0.4227114323201388 H
   0.1979462639245359    0.6791347019398090    0.4227114323201388 H
   0.6979462639245360    0.1791347019398091    0.4227114323201388 H
   0.8020537360754607    0.3208652980601872    0.4227114323201388 H
   0.3020537360754607    0.8208652980601872    0.4227114323201389 H
   0.6495101867541855    0.5985688158516311    0.5487982790849220 H
   0.1495101867541855    0.0985688158516309    0.5487982790849218 H
   0.3504898132458145    0.4014311841483689    0.5487982790849218 H
   0.8504898132458144    0.9014311841483689    0.5487982790849217 H
   0.9014311841483689    0.1495101867541856    0.5487982790849218 H
   0.4014311841483688    0.6495101867541855    0.5487982790849217 H
   0.0985688158516310    0.8504898132458144    0.5487982790849218 H
   0.5985688158516309    0.3504898132458143    0.5487982790849218 H
   0.1468700120011066    0.3621966670491225    0.5329305285513749 H
   0.6468700120011065    0.8621966670491222    0.5329305285513748 H
   0.8531299879988933    0.6378033329508780    0.5329305285513749 H
   0.3531299879988932    0.1378033329508779    0.5329305285513749 H
   0.1378033329508778    0.6468700120011068    0.5329305285513749 H
   0.6378033329508779    0.1468700120011068    0.5329305285513749 H
   0.8621966670491222    0.3531299879988936    0.5329305285513749 H
   0.3621966670491222    0.8531299879988936    0.5329305285513748 H
   0.1089103220314609    0.1687527335773549    0.4764537657288682 C
   0.6089103220314609    0.6687527335773549    0.4764537657288682 C
   0.8910896779685389    0.8312472664226451    0.4764537657288683 C
   0.3910896779685389    0.3312472664226451    0.4764537657288682 C
   0.3312472664226451    0.6089103220314609    0.4764537657288683 C
   0.8312472664226450    0.1089103220314607    0.4764537657288682 C
   0.6687527335773549    0.3910896779685390    0.4764537657288682 C
   0.1687527335773549    0.8910896779685389    0.4764537657288682 C
   0.1162365210046817    0.2265551988091762    0.4420978039809293 C
   0.6162365210046815    0.7265551988091760    0.4420978039809293 C
   0.8837634789953152    0.7734448011908271    0.4420978039809293 C
   0.3837634789953151    0.2734448011908270    0.4420978039809293 C
   0.2734448011908270    0.6162365210046850    0.4420978039809293 C
   0.7734448011908269    0.1162365210046847    0.4420978039809293 C
   0.7265551988091760    0.3837634789953185    0.4420978039809293 C
   0.2265551988091759    0.8837634789953185    0.4420978039809293 C
   0.1717474918390169    0.2579962432318040    0.4513523830991145 C
   0.6717474918390169    0.7579962432318039    0.4513523830991145 C
   0.8282525081609831    0.7420037567681961    0.4513523830991145 C
   0.3282525081609831    0.2420037567681961    0.4513523830991144 C
   0.2420037567681959    0.6717474918390169    0.4513523830991145 C
   0.7420037567681959    0.1717474918390167    0.4513523830991144 C
   0.7579962432318039    0.3282525081609832    0.4513523830991145 C
   0.2579962432318039    0.8282525081609831    0.4513523830991145 C
   0.2200161577795700    0.2331593815834133    0.4950762077348034 C
   0.7200161577795700    0.7331593815834132    0.4950762077348034 C
   0.7799838422204299    0.7668406184165868    0.4950762077348035 C
   0.2799838422204298    0.2668406184165866    0.4950762077348034 C
   0.2668406184165867    0.7200161577795700    0.4950762077348035 C
   0.7668406184165866    0.2200161577795698    0.4950762077348034 C
   0.7331593815834132    0.2799838422204300    0.4950762077348034 C
   0.2331593815834132    0.7799838422204299    0.4950762077348034 C
   0.7106302294835223    0.6755823898065234    0.5302153767583109 C
   0.2106302294835222    0.1755823898065232    0.5302153767583109 C
   0.2893697705164779    0.3244176101934765    0.5302153767583109 C
   0.7893697705164779    0.8244176101934765    0.5302153767583108 C
   0.8244176101934764    0.2106302294835222    0.5302153767583109 C
   0.3244176101934764    0.7106302294835221    0.5302153767583108 C
   0.1755823898065232    0.7893697705164777    0.5302153767583109 C
   0.6755823898065232    0.2893697705164777    0.5302153767583109 C
   0.6551989407840141    0.6431855491221051    0.5214063069438248 C
   0.1551989407840141    0.1431855491221050    0.5214063069438248 C
   0.3448010592159859    0.3568144508778947    0.5214063069438248 C
   0.8448010592159859    0.8568144508778945    0.5214063069438247 C
   0.8568144508778948    0.1551989407840141    0.5214063069438248 C
   0.3568144508778947    0.6551989407840140    0.5214063069438247 C
   0.1431855491221051    0.8448010592159858    0.5214063069438248 C
   0.6431855491221050    0.3448010592159858    0.5214063069438248 C
   0.0398240027067373    0.1292790352476577    0.4524402394448317 S
   0.5398240027067372    0.6292790352476577    0.4524402394448317 S
   0.9601759972932623    0.8707209647523422    0.4524402394448317 S
   0.4601759972932622    0.3707209647523420    0.4524402394448317 S
   0.3707209647523423    0.5398240027067374    0.4524402394448317 S
   0.8707209647523423    0.0398240027067371    0.4524402394448317 S
   0.6292790352476578    0.4601759972932625    0.4524402394448317 S
   0.1292790352476578    0.9601759972932625    0.4524402394448317 S
   0.2326684956145602    0.3586182145386365    0.5914082644575640 S
   0.7326684956145602    0.8586182145386364    0.5914082644575639 S
   0.7673315043854395    0.6413817854613632    0.5914082644575640 S
   0.2673315043854394    0.1413817854613630    0.5914082644575640 S
   0.1413817854613635    0.7326684956145600    0.5914082644575640 S
   0.6413817854613635    0.2326684956145599    0.5914082644575640 S
   0.8586182145386367    0.2673315043854395    0.5914082644575640 S
   0.3586182145386367    0.7673315043854394    0.5914082644575639 S
   0.0417085353621623    0.0719541612928239    0.5095155837283286 O
   0.5417085353621622    0.5719541612928237    0.5095155837283286 O
   0.9582914646378380    0.9280458387071757    0.5095155837283286 O
   0.4582914646378379    0.4280458387071755    0.5095155837283286 O
   0.4280458387071757    0.5417085353621618    0.5095155837283286 O
   0.9280458387071756    0.0417085353621618    0.5095155837283285 O
   0.5719541612928238    0.4582914646378377    0.5095155837283286 O
   0.0719541612928238    0.9582914646378377    0.5095155837283285 O
   0.9880407271357360    0.1679665378556515    0.4721409476991220 O
   0.4880407271357359    0.6679665378556514    0.4721409476991220 O
   0.0119592728642642    0.8320334621443479    0.4721409476991221 O
   0.5119592728642641    0.3320334621443479    0.4721409476991220 O
   0.3320334621443481    0.4880407271357355    0.4721409476991220 O
   0.8320334621443479    0.9880407271357354    0.4721409476991219 O
   0.6679665378556516    0.5119592728642640    0.4721409476991220 O
   0.1679665378556515    0.0119592728642639    0.4721409476991219 O
   0.0454243110790700    0.1053183087621492    0.3770841472049916 O
   0.5454243110790700    0.6053183087621491    0.3770841472049916 O
   0.9545756889209296    0.8946816912378508    0.3770841472049918 O
   0.4545756889209296    0.3946816912378506    0.3770841472049918 O
   0.3946816912378510    0.5454243110790701    0.3770841472049917 O
   0.8946816912378510    0.0454243110790702    0.3770841472049917 O
   0.6053183087621492    0.4545756889209299    0.3770841472049917 O
   0.1053183087621491    0.9545756889209298    0.3770841472049917 O
   0.2003081439775541    0.3104985797984564    0.6312528039501797 O
   0.7003081439775540    0.8104985797984563    0.6312528039501796 O
   0.7996918560224457    0.6895014202015363    0.6312528039501797 O
   0.2996918560224456    0.1895014202015362    0.6312528039501797 O
   0.1895014202015399    0.7003081439775505    0.6312528039501797 O
   0.6895014202015399    0.2003081439775505    0.6312528039501797 O
   0.8104985797984601    0.2996918560224422    0.6312528039501797 O
   0.3104985797984601    0.7996918560224421    0.6312528039501796 O
   0.1837523530475026    0.3885762171069578    0.5316503110321462 O
   0.6837523530475025    0.8885762171069577    0.5316503110321461 O
   0.8162476469524970    0.6114237828930420    0.5316503110321462 O
   0.3162476469524970    0.1114237828930420    0.5316503110321461 O
   0.1114237828930422    0.6837523530475027    0.5316503110321461 O
   0.6114237828930422    0.1837523530475025    0.5316503110321461 O
   0.8885762171069580    0.3162476469524971    0.5316503110321462 O
   0.3885762171069581    0.8162476469524971    0.5316503110321461 O
   0.2614072364799926    0.4098719932819091    0.6286958138737966 O
   0.7614072364799926    0.9098719932819090    0.6286958138737965 O
   0.7385927635200035    0.5901280067180945    0.6286958138737967 O
   0.2385927635200035    0.0901280067180945    0.6286958138737966 O
   0.0901280067180946    0.7614072364799964    0.6286958138737966 O
   0.5901280067180945    0.2614072364799962    0.6286958138737966 O
   0.9098719932819092    0.2385927635200073    0.6286958138737966 O
   0.4098719932819092    0.7385927635200072    0.6286958138737965 O
