Generated by VASPKIT code
 1.000000
   14.5715923308999997    0.0000000000000000    0.0000000000000000
    0.0000000000000009   14.5715923308999997    0.0000000000000000
    0.0000000000000009    0.0000000000000009   15.0000000000000000
   Cr   H    C    O 
     2    16    32     8
Cartesian
    0.0000000000000005    0.0000000000000005    7.4995756719999997    Cr001
    7.2857961895000019    7.2857961414999997    7.4995756719999997    Cr002
    3.5323584774162180   13.7327817904858431    7.5000910860000012     H001
   10.8181546179162158    6.4469856009858404    7.5000910860000012     H002
   11.0392339025837849    0.8388104915141614    7.5000910860000012     H003
    3.7534377610837852    8.1246066810141606    7.5000910860000012     H004
    8.1246067300141593   10.8181545699162154    7.5000910860000012     H005
    0.8388105405141619    3.5323584284162166    7.5000910860000012     H006
    6.4469856499858400    3.7534377130837839    7.5000910860000012     H007
   13.7327818394858401   11.0392338535837826    7.5000910860000012     H008
    8.2945175679051282    2.8399776457851558    7.4988356359999999     H009
    1.0087214264051307   10.1257738362851573    7.4988356359999999     H010
    6.2770748120948738   11.7316146362148448    7.4988356359999999     H011
   13.5628709535948726    4.4458184467148456    7.4988356359999999     H012
    4.4458184947148451    1.0087213774051293    7.4988356359999999     H013
   11.7316146852148435    8.2945175189051312    7.4988356359999999     H014
   10.1257738842851559   13.5628709045948721    7.4988356359999999     H015
    2.8399776947851572    6.2770747630948724    7.4988356359999999     H016
    9.2007648879105570    4.9439093847524607    7.5006349630000004     C001
    1.9149687464105585   12.2297055742524599    7.5006349630000004     C002
    5.3708274920894468    9.6276828972475403    7.5006349630000004     C003
   12.6566236325894419    2.3418867077475407    7.5006349630000004     C004
    2.3418867567475408    1.9149686984105565    7.5006349630000004     C005
    9.6276829462475408    9.2007648389105583    7.5006349630000004     C006
   12.2297056232524586   12.6566235845894415    7.5006349630000004     C007
    4.9439094337524594    5.3708274430894436    7.5006349630000004     C008
    3.2380820604900005   12.6923073244447728    7.5005612650000000     C009
   10.5238782019899979    5.4065111349447754    7.5005612650000000     C010
   11.3335103185100046    1.8792849575552255    7.5005612650000000     C011
    4.0477141780100041    9.1650811470552291    7.5005612650000000     C012
    9.1650811960552279   10.5238781529899974    7.5005612650000000     C013
    1.8792850065552262    3.2380820124899996    7.5005612650000000     C014
    5.4065111839447750    4.0477141290100045    7.5005612650000000     C015
   12.6923073734447751   11.3335102705100024    7.5005612650000000     C016
   10.4958293072201592    3.0375248801314902    7.5008552940000008     C017
    3.2100331657201604   10.3233210696314934    7.5008552940000008     C018
    4.0757630727798437   11.5340674018685085    7.5008552940000008     C019
   11.3615592132798415    4.2482712123685102    7.5008552940000008     C020
    4.2482712613685107    3.2100331167201608    7.5008552940000008     C021
   11.5340674508685090   10.4958292582201587    7.5008552940000008     C022
   10.3233211186314922   11.3615591652798411    7.5008552940000008     C023
    3.0375249291314921    4.0757630237798432    7.5008552940000008     C024
    9.1935009439640591    3.4497205698008147    7.4998070310000005     C025
    1.9077048034640605   10.7355167593008165    7.4998070310000005     C026
    5.3780914350359446   11.1218717121991872    7.4998070310000005     C027
   12.6638875765359415    3.8360755226991872    7.4998070310000005     C028
    3.8360755706991871    1.9077047544640593    7.4998070310000005     C029
   11.1218717611991842    9.1935008959640587    7.4998070310000005     C030
   10.7355168083008135   12.6638875275359428    7.4998070310000005     C031
    3.4497206188008156    5.3780913870359432    7.4998070310000005     C032
    8.0996842205621995    5.6426911860821223    7.5011643640000001     O001
    0.8138880790622007   12.9284873755821224    7.5011643640000001     O002
    6.4719081594378043    8.9289010969178833    7.5011643640000001     O003
   13.7577042999377994    1.6431049064178807    7.5011643640000001     O004
    1.6431049554178803    0.8138880300621992    7.5011643640000001     O005
    8.9289011449178801    8.0996841715621990    7.5011643640000001     O006
   12.9284874245821193   13.7577042519378026    7.5011643640000001     O007
    5.6426912340821209    6.4719081104378020    7.5011643640000001     O008
