Generated by VASPKIT code
 1.000000
   16.9336509705000005    0.0000000000000000    0.0000000000000000
    0.0000000000000010   16.9336509705000005    0.0000000000000000
    0.0000000000000009    0.0000000000000009   15.0000000000000000
   Cr   H    C    N    O 
     2    40    24     8    16
Cartesian
    0.0000000000000007    0.0000000000000007    8.6596331919999994    Cr001
    8.4668254967000003    8.4668254743000002    8.6596331919999994    Cr002
    3.5720371066304413   14.7816743264231842    8.9670807999999997     H001
   12.0388625799304378    6.3148488297231831    8.9670807999999997     H002
   13.3616138867695611    2.1519766211768183    8.9670807999999997     H003
    4.8947884134695654   10.6188021178768199    8.9670807999999997     H004
   10.6188021402768200   12.0388625575304378    8.9670807999999997     H005
    2.1519766445768194    3.5720370832304402    8.9670807999999997     H006
    6.3148488521231831    4.8947883900695617    8.9670807999999997     H007
   14.7816743488231843   13.3616138643695610    8.9670807999999997     H008
   11.4710105847915589    4.0251211462456231    7.0057929200000011     H009
    3.0041851114915619   12.4919466419456207    7.0057929200000011     H010
    5.4626404076084416   12.9085298023543746    7.0057929200000011     H011
   13.9294658819084418    4.4417043056543761    7.0057929200000011     H012
    4.4417043280543762    3.0041850890915600    7.0057929200000011     H013
   12.9085298247543783   11.4710105623915606    7.0057929200000011     H014
   12.4919466653456226   13.9294658595084417    7.0057929200000011     H015
    4.0251211686456232    5.4626403852084406    7.0057929200000011     H016
   11.4430844315625642    3.9397076763204959    8.7555390709999994     H017
    2.9762589582625645   12.4065331730204953    8.7555390709999994     H018
    5.4905665618374417   12.9939432712795071    8.7555390709999994     H019
   13.9573920351374401    4.5271177745795059    8.7555390709999994     H020
    4.5271177969795051    2.9762589348625617    8.7555390709999994     H021
   12.9939432936795072   11.4430844091625605    8.7555390709999994     H022
   12.4065331954204989   13.9573920127374418    8.7555390709999994     H023
    3.9397076997204961    5.4905665384374407    8.7555390709999994     H024
    3.8500043702408653   16.1283189126779369    7.0261893349999998     H025
   12.3168298445408624    7.6614934159779375    7.0261893349999998     H026
   13.0836466221591383    0.8053320349220626    7.0261893349999998     H027
    4.6168211488591391    9.2721575316220655    7.0261893349999998     H028
    9.2721575540220620   12.3168298221408641    7.0261893349999998     H029
    0.8053320573220634    3.8500043478408625    7.0261893349999998     H030
    7.6614934393779386    4.6168211264591363    7.0261893349999998     H031
   16.1283189360779389   13.0836465997591400    7.0261893349999998     H032
    3.7476923307316019   14.8194064449522411    6.0329192000000003     H033
   12.2145178040316029    6.3525809482522408    6.0329192000000003     H034
   13.1859586626684013    2.1142445026477583    6.0329192000000003     H035
    4.7191331893684030   10.5810699993477577    6.0329192000000003     H036
   10.5810700227477579   12.2145177816316011    6.0329192000000003     H037
    2.1142445260477594    3.7476923073316004    6.0329192000000003     H038
    6.3525809706522427    4.7191331659683993    6.0329192000000003     H039
   14.8194064673522394   13.1859586402684013    6.0329192000000003     H040
   10.2605814728223805    6.2745433184908483    7.7544168769999988     C001
    1.7937559995223802   14.7413688141908494    7.7544168769999988     C002
    6.6730695195776262   10.6591076301091547    7.7544168769999988     C003
   15.1398949938776273    2.1922821334091536    7.7544168769999988     C004
    2.1922821558091536    1.7937559771223783    7.7544168769999988     C005
   10.6591076525091530   10.2605814504223787    7.7544168769999988     C006
   14.7413688375908549   15.1398949714776236    7.7544168769999988     C007
    6.2745433408908466    6.6730694971776225    7.7544168769999988     C008
    3.2672096365854570   14.3919078772404418    7.9842576709999999     C009
   11.7340351098854541    5.9250823805404425    7.9842576709999999     C010
   13.6664413568145466    2.5417430703595589    7.9842576709999999     C011
    5.1996158835145474   11.0085685670595570    7.9842576709999999     C012
   11.0085685894595624   11.7340350874854540    7.9842576709999999     C013
    2.5417430927595599    3.2672096131854551    7.9842576709999999     C014
    5.9250824039404417    5.1996158601145481    7.9842576709999999     C015
   14.3919079006404402   13.6664413344145466    7.9842576709999999     C016
   11.9600479268448421    4.4179818219344895    7.9079258699999997     C017
    3.4932224525448423   12.8848073186344916    7.9079258699999997     C018
    4.9736030665551629   12.5156691256655126    7.9079258699999997     C019
   13.4404285408551640    4.0488436299655124    7.9079258699999997     C020
    4.0488436523655116    3.4932224301448400    7.9079258699999997     C021
   12.5156691490655110   11.9600479034448401    7.9079258699999997     C022
   12.8848073410344934   13.4404285174551639    7.9079258699999997     C023
    4.4179818443344887    4.9736030441551620    7.9079258699999997     C024
    4.0320199075426624   15.1219224171899445    6.9675638160000002     N001
   12.4988453808426616    6.6550969204899451    6.9675638160000002     N002
   12.9016310858573391    1.8117285314100557    6.9675638160000002     N003
    4.4348056125573407   10.2785540271100544    6.9675638160000002     N004
   10.2785540505100546   12.4988453584426615    6.9675638160000002     N005
    1.8117285538100565    4.0320198841426613    6.9675638160000002     N006
    6.6550969428899451    4.4348055891573388    6.9675638160000002     N007
   15.1219224395899445   12.9016310634573372    6.9675638160000002     N008
    1.4354350805520824   15.8714111791515240    8.4023193779999996     O001
    9.9022605548520790    7.4045856824515246    8.4023193779999996     O002
   15.4982159118479199    1.0622397684484768    8.4023193779999996     O003
    7.0313904385479233    9.5290652651484749    8.4023193779999996     O004
    9.5290652885484750    9.9022605324520807    8.4023193779999996     O005
    1.0622397918484769    1.4354350581520805    8.4023193779999996     O006
    7.4045857048515247    7.0313904151479214    8.4023193779999996     O007
   15.8714112015515258   15.4982158894479216    8.4023193779999996     O008
    9.5177044412538372    5.6894975334825402    6.9776341550000005     O009
    1.0508789679538417   14.1563230291825377    6.9776341550000005     O010
    7.4159465521461643   11.2441534151174594    6.9776341550000005     O011
   15.8827720254461617    2.7773279184174617    6.9776341550000005     O012
    2.7773279408174623    1.0508789445538398    6.9776341550000005     O013
   11.2441534375174594    9.5177044188538389    6.9776341550000005     O014
   14.1563230525825396   15.8827720030461617    6.9776341550000005     O015
    5.6894975558825411    7.4159465287461614    6.9776341550000005     O016
