Generated by VASPKIT code
 1.000000
   15.8307762146000002    0.0000000000000000    0.0000000000000000
    0.0000000000000010   15.8307762146000002    0.0000000000000000
    0.0000000000000009    0.0000000000000009   15.0000000000000000
   Cr   O    C    H 
     2    16    32    16
Cartesian
    0.0000000000000005    0.0000000000000005    7.5000000000000000    Cr001
    7.9153881070000027    7.9153881070000010    7.5000000000000000    Cr002
    9.1616246619999995    6.5826636570000012    7.5000000000000000     O001
    1.2462365550000023   14.4980517649999996    7.5000000000000000     O002
    6.6691515520000006    9.2481125570000007    7.5000000000000000     O003
   14.5845396599999972    1.3327244500000004    7.5000000000000000     O004
    1.3327244500000004    1.2462365550000005    7.5000000000000000     O005
    9.2481125570000007    9.1616246619999995    7.5000000000000000     O006
   14.4980517650000031   14.5845396599999972    7.5000000000000000     O007
    6.5826636570000012    6.6691515519999989    7.5000000000000000     O008
    8.2774383329999992    4.5081687010000007    7.5000000000000000     O009
    0.3620502250000021   12.4235568090000008    7.5000000000000000     O010
    7.5533378820000028   11.3226075129999995    7.5000000000000000     O011
   15.4687259889999993    3.4072194060000003    7.5000000000000000     O012
    3.4072194060000003    0.3620502250000005    7.5000000000000000     O013
   11.3226075129999995    8.2774383329999992    7.5000000000000000     O014
   12.4235568090000026   15.4687259889999993    7.5000000000000000     O015
    4.5081687010000024    7.5533378820000010    7.5000000000000000     O016
    9.2737880209999961    5.2131619120000012    7.5000000000000000     C001
    1.3583999140000023   13.1285500190000004    7.5000000000000000     C002
    6.5569881940000023   10.6176143029999963    7.5000000000000000     C003
   14.4723763010000006    2.7022261950000006    7.5000000000000000     C004
    2.7022261950000006    1.3583999140000005    7.5000000000000000     C005
   10.6176143029999963    9.2737880209999961    7.5000000000000000     C006
   13.1285500190000004   14.4723763010000006    7.5000000000000000     C007
    5.2131619120000012    6.5569881940000005    7.5000000000000000     C008
   10.6357973450000003    4.6127594530000007    7.5000000000000000     C009
    2.7204092380000011   12.5281475600000007    7.5000000000000000     C010
    5.1949788700000026   11.2180167619999960    7.5000000000000000     C011
   13.1103669770000000    3.3026286540000003    7.5000000000000000     C012
    3.3026286540000003    2.7204092379999998    7.5000000000000000     C013
   11.2180167619999960   10.6357973450000003    7.5000000000000000     C014
   12.5281475600000007   13.1103669770000000    7.5000000000000000     C015
    4.6127594530000007    5.1949788700000008    7.5000000000000000     C016
    3.9085967340000023   13.2751818499999992    7.5000000000000000     C017
   11.8239848409999997    5.3597937430000009    7.5000000000000000     C018
   11.9221794810000006    2.5555943640000005    7.5000000000000000     C019
    4.0067913730000031   10.4709824719999958    7.5000000000000000     C020
   10.4709824719999958   11.8239848409999997    7.5000000000000000     C021
    2.5555943640000014    3.9085967340000005    7.5000000000000000     C022
    5.3597937430000009    4.0067913730000013    7.5000000000000000     C023
   13.2751818499999992   11.9221794810000006    7.5000000000000000     C024
    5.1326681500000024   12.6233634170000002    7.5000000000000000     C025
   13.0480562570000007    4.7079753090000009    7.5000000000000000     C026
   10.6981080649999996    3.2074127980000005    7.5000000000000000     C027
    2.7827199580000022   11.1228009050000001    7.5000000000000000     C028
   11.1228009050000001   13.0480562570000007    7.5000000000000000     C029
    3.2074127980000013    5.1326681500000007    7.5000000000000000     C030
    4.7079753090000009    2.7827199580000004    7.5000000000000000     C031
   12.6233634170000002   10.6981080649999996    7.5000000000000000     C032
    3.8599545690000023   14.3577317220000005    7.5000000000000000     H001
   11.7753426759999993    6.4423436140000012    7.5000000000000000     H002
   11.9708216459999992    1.4730444930000004    7.5000000000000000     H003
    4.0554335390000009    9.3884325999999998    7.5000000000000000     H004
    9.3884325999999998   11.7753426759999993    7.5000000000000000     H005
    1.4730444930000008    3.8599545690000006    7.5000000000000000     H006
    6.4423436140000012    4.0554335389999991    7.5000000000000000     H007
   14.3577317220000005   11.9708216459999992    7.5000000000000000     H008
    6.0606404170000028   13.1942815899999992    7.5000000000000000     H009
   13.9760285240000002    5.2788934830000009    7.5000000000000000     H010
    9.7701357980000001    2.6364946250000005    7.5000000000000000     H011
    1.8547476910000018   10.5518827319999993    7.5000000000000000     H012
   10.5518827319999993   13.9760285240000002    7.5000000000000000     H013
    2.6364946250000014    6.0606404170000010    7.5000000000000000     H014
    5.2788934830000009    1.8547476910000005    7.5000000000000000     H015
   13.1942815899999992    9.7701357980000001    7.5000000000000000     H016
