Cartesian coordinates                   
1.0
       15.7342205048        -0.0000000018         0.0000000000
        0.0000000018        15.7342205048         0.0000000000
        0.0000000000         0.0000000000        17.4499130249
   Cr    H    C    N
    2   16   32   16
Direct
     0.000000000         0.000000000         0.500000000
     0.500000000         0.500000000         0.500000000
     0.212036029         0.979909156         0.500000000
     0.712036029         0.479909156         0.500000000
     0.787963971         0.020090844         0.500000000
     0.287963971         0.520090844         0.500000000
     0.520090844         0.712036029         0.500000000
     0.020090844         0.212036029         0.500000000
     0.479909156         0.287963971         0.500000000
     0.979909156         0.787963971         0.500000000
     0.370102854         0.859406017         0.500000000
     0.870102854         0.359406017         0.500000000
     0.629897146         0.140593983         0.500000000
     0.129897146         0.640593983         0.500000000
     0.640593983         0.870102854         0.500000000
     0.140593983         0.370102854         0.500000000
     0.359406017         0.129897146         0.500000000
     0.859406017         0.629897146         0.500000000
     0.188791279         0.914765219         0.500000000
     0.688791279         0.414765219         0.500000000
     0.811208721         0.085234781         0.500000000
     0.311208721         0.585234781         0.500000000
     0.585234781         0.688791279         0.500000000
     0.085234781         0.188791279         0.500000000
     0.414765219         0.311208721         0.500000000
     0.914765219         0.811208721         0.500000000
     0.232547651         0.836772266         0.500000000
     0.732547651         0.336772266         0.500000000
     0.767452349         0.163227734         0.500000000
     0.267452349         0.663227734         0.500000000
     0.663227734         0.732547651         0.500000000
     0.163227734         0.232547651         0.500000000
     0.336772266         0.267452349         0.500000000
     0.836772266         0.767452349         0.500000000
     0.665156493         0.274791099         0.500000000
     0.165156493         0.774791099         0.500000000
     0.334843507         0.725208901         0.500000000
     0.834843507         0.225208901         0.500000000
     0.225208901         0.165156493         0.500000000
     0.725208901         0.665156493         0.500000000
     0.774791099         0.834843507         0.500000000
     0.274791099         0.334843507         0.500000000
     0.318655661         0.812962650         0.500000000
     0.818655661         0.312962650         0.500000000
     0.681344339         0.187037350         0.500000000
     0.181344339         0.687037350         0.500000000
     0.687037350         0.818655661         0.500000000
     0.187037350         0.318655661         0.500000000
     0.312962650         0.181344339         0.500000000
     0.812962650         0.681344339         0.500000000
     0.102696407         0.900681191         0.500000000
     0.602696407         0.400681191         0.500000000
     0.397303593         0.599318809         0.500000000
     0.897303593         0.099318809         0.500000000
     0.099318809         0.102696407         0.500000000
     0.599318809         0.602696407         0.500000000
     0.400681191         0.397303593         0.500000000
     0.900681191         0.897303593         0.500000000
     0.588744772         0.315162572         0.500000000
     0.088744772         0.815162572         0.500000000
     0.411255228         0.684837428         0.500000000
     0.911255228         0.184837428         0.500000000
     0.184837428         0.088744772         0.500000000
     0.684837428         0.588744772         0.500000000
     0.815162572         0.911255228         0.500000000
     0.315162572         0.411255228         0.500000000
