Cr2 H40 C72 N8 O32
1.0
  21.2350049970368033  -21.2350050290307628    0.0000000000000000
  21.2350050290307664   21.2350049970368069    0.0000000000000014
   0.0000000000000000    0.0000000000000000   17.0511501795139004
Cr H C N O
2 40 72 8 32
direct
   0.0000000000000000    0.0000000000000000    0.5000000000000000 Cr
   0.5000000000000001    0.5000000000000000    0.4999999999999999 Cr
   0.6573588235999661    0.6113050775595927    0.4999999999999999 H
   0.1573588235999662    0.1113050775595927    0.4999999999999999 H
   0.3426411764000343    0.3886949224404073    0.4999999999999999 H
   0.8426411764000343    0.8886949224404074    0.4999999999999999 H
   0.8886949224404073    0.1573588235999659    0.5000000000000000 H
   0.3886949224404073    0.6573588235999659    0.4999999999999999 H
   0.1113050775595926    0.8426411764000341    0.5000000000000000 H
   0.6113050775595927    0.3426411764000341    0.5000000000000000 H
   0.0632489038195600    0.1913949623146524    0.5000000000000000 H
   0.5632489038195601    0.6913949623146523    0.4999999999999999 H
   0.9367510961804402    0.8086050376853473    0.5000000000000000 H
   0.4367510961804402    0.3086050376853473    0.5000000000000000 H
   0.3086050376853476    0.5632489038195598    0.4999999999999999 H
   0.8086050376853476    0.0632489038195598    0.4999999999999999 H
   0.6913949623146525    0.4367510961804398    0.4999999999999999 H
   0.1913949623146526    0.9367510961804399    0.4999999999999999 H
   0.0746393895539161    0.2736154096205562    0.5000000000000000 H
   0.5746393895539162    0.7736154096205563    0.4999999999999999 H
   0.9253606104460836    0.7263845903794437    0.5000000000000000 H
   0.4253606104460838    0.2263845903794435    0.5000000000000000 H
   0.2263845903794439    0.5746393895539161    0.4999999999999999 H
   0.7263845903794439    0.0746393895539161    0.4999999999999999 H
   0.7736154096205565    0.4253606104460837    0.4999999999999999 H
   0.2736154096205566    0.9253606104460838    0.4999999999999999 H
   0.1514575917078164    0.3051946364640104    0.5000000000000000 H
   0.6514575917078166    0.8051946364640105    0.4999999999999999 H
   0.8485424082921839    0.6948053635359891    0.5000000000000000 H
   0.3485424082921839    0.1948053635359890    0.5000000000000000 H
   0.1948053635359894    0.6514575917078160    0.5000000000000001 H
   0.6948053635359894    0.1514575917078160    0.5000000000000000 H
   0.8051946364640106    0.3485424082921834    0.4999999999999999 H
   0.3051946364640107    0.8485424082921835    0.4999999999999999 H
   0.7053190004051689    0.6722203923694844    0.5000000000000001 H
   0.2053190004051690    0.1722203923694845    0.5000000000000000 H
   0.2946809995948305    0.3277796076305156    0.5000000000000000 H
   0.7946809995948305    0.8277796076305156    0.4999999999999999 H
   0.8277796076305159    0.2053190004051693    0.5000000000000000 H
   0.3277796076305161    0.7053190004051693    0.4999999999999999 H
   0.1722203923694848    0.7946809995948307    0.5000000000000000 H
   0.6722203923694849    0.2946809995948307    0.5000000000000000 H
   0.6016709910900376    0.5552480524615847    0.4999999999999999 C
   0.1016709910900377    0.0552480524615846    0.4999999999999999 C
   0.3983290089099630    0.4447519475384155    0.4999999999999999 C
   0.8983290089099631    0.9447519475384155    0.4999999999999999 C
   0.9447519475384152    0.1016709910900375    0.5000000000000000 C
   0.4447519475384152    0.6016709910900374    0.4999999999999999 C
   0.0552480524615844    0.8983290089099627    0.5000000000000000 C
   0.5552480524615845    0.3983290089099627    0.5000000000000000 C
   0.0911118172413846    0.1061950225027274    0.5000000000000000 C
   0.5911118172413847    0.6061950225027274    0.4999999999999999 C
   0.9088881827586159    0.8938049774972727    0.5000000000000000 C
   0.4088881827586159    0.3938049774972727    0.5000000000000000 C
   0.3938049774972725    0.5911118172413844    0.4999999999999999 C
   0.8938049774972727    0.0911118172413845    0.4999999999999999 C
   0.6061950225027272    0.4088881827586157    0.4999999999999999 C
   0.1061950225027273    0.9088881827586157    0.4999999999999999 C
   0.1336185277459837    0.1770023400948328    0.5000000000000000 C
   0.6336185277459839    0.6770023400948328    0.4999999999999999 C
   0.8663814722540166    0.8229976599051663    0.5000000000000000 C
   0.3663814722540166    0.3229976599051665    0.5000000000000000 C
   0.3229976599051667    0.6336185277459830    0.4999999999999999 C
   0.8229976599051668    0.1336185277459832    0.4999999999999999 C
   0.6770023400948332    0.3663814722540159    0.4999999999999999 C
   0.1770023400948334    0.8663814722540160    0.4999999999999999 C
   0.0966017039756876    0.2055430267603600    0.5000000000000000 C
   0.5966017039756878    0.7055430267603601    0.4999999999999999 C
   0.9033982960243127    0.7944569732396398    0.5000000000000000 C
   0.4033982960243128    0.2944569732396398    0.5000000000000000 C
   0.2944569732396399    0.5966017039756873    0.4999999999999999 C
   0.7944569732396399    0.0966017039756875    0.4999999999999999 C
   0.7055430267603600    0.4033982960243124    0.4999999999999999 C
   0.2055430267603601    0.9033982960243125    0.4999999999999999 C
   0.1034621893425512    0.2515385768954271    0.5000000000000000 C
   0.6034621893425512    0.7515385768954270    0.4999999999999999 C
   0.8965378106574489    0.7484614231045729    0.5000000000000000 C
   0.3965378106574491    0.2484614231045730    0.5000000000000000 C
   0.2484614231045730    0.6034621893425511    0.4999999999999999 C
   0.7484614231045732    0.1034621893425511    0.4999999999999999 C
   0.7515385768954271    0.3965378106574488    0.4999999999999999 C
   0.2515385768954272    0.8965378106574489    0.4999999999999999 C
   0.1460646881346306    0.2693425387349179    0.5000000000000000 C
   0.6460646881346308    0.7693425387349180    0.4999999999999999 C
   0.8539353118653659    0.7306574612650786    0.5000000000000000 C
   0.3539353118653658    0.2306574612650785    0.5000000000000000 C
   0.2306574612650823    0.6460646881346307    0.5000000000000001 C
   0.7306574612650824    0.1460646881346306    0.5000000000000000 C
   0.7693425387349215    0.3539353118653658    0.4999999999999999 C
   0.2693425387349216    0.8539353118653659    0.4999999999999999 C
   0.1834877976037645    0.2409006313685654    0.5000000000000000 C
   0.6834877976037647    0.7409006313685655    0.4999999999999999 C
   0.8165122023962283    0.7590993686314416    0.5000000000000000 C
   0.3165122023962284    0.2590993686314416    0.5000000000000000 C
   0.2590993686314418    0.6834877976037717    0.5000000000000000 C
   0.7590993686314418    0.1834877976037717    0.5000000000000000 C
   0.7409006313685655    0.3165122023962354    0.5000000000000000 C
   0.2409006313685657    0.8165122023962355    0.4999999999999999 C
   0.1768460026956178    0.1945656232978843    0.5000000000000000 C
   0.6768460026956178    0.6945656232978843    0.4999999999999999 C
   0.8231539973043821    0.8054343767021158    0.5000000000000000 C
   0.3231539973043820    0.3054343767021157    0.5000000000000000 C
   0.3054343767021160    0.6768460026956180    0.5000000000000000 C
   0.8054343767021160    0.1768460026956178    0.5000000000000000 C
   0.6945656232978844    0.3231539973043822    0.5000000000000000 C
   0.1945656232978845    0.8231539973043822    0.4999999999999999 C
   0.2276665481886955    0.2637078573458616    0.5000000000000000 C
   0.7276665481886956    0.7637078573458616    0.4999999999999999 C
   0.7723334518113046    0.7362921426541390    0.5000000000000000 C
   0.2723334518113047    0.2362921426541389    0.5000000000000000 C
   0.2362921426541387    0.7276665481886957    0.5000000000000000 C
   0.7362921426541388    0.2276665481886957    0.5000000000000000 C
   0.7637078573458613    0.2723334518113049    0.5000000000000000 C
   0.2637078573458614    0.7723334518113050    0.4999999999999999 C
   0.1292631879599138    0.1304606494309847    0.5000000000000000 N
   0.6292631879599140    0.6304606494309848    0.4999999999999999 N
   0.3707368120400861    0.3695393505690153    0.4999999999999999 N
   0.8707368120400863    0.8695393505690153    0.4999999999999999 N
   0.8695393505690154    0.1292631879599139    0.5000000000000000 N
   0.3695393505690155    0.6292631879599140    0.4999999999999999 N
   0.6304606494309848    0.3707368120400862    0.4999999999999999 N
   0.1304606494309848    0.8707368120400862    0.4999999999999999 N
   0.5664765645072269    0.5291883639690129    0.4999999999999999 O
   0.0664765645072271    0.0291883639690129    0.4999999999999999 O
   0.4335234354927728    0.4708116360309877    0.4999999999999999 O
   0.9335234354927731    0.9708116360309877    0.4999999999999999 O
   0.9708116360309875    0.0664765645072274    0.5000000000000000 O
   0.4708116360309875    0.5664765645072274    0.4999999999999999 O
   0.0291883639690129    0.9335234354927733    0.5000000000000000 O
   0.5291883639690130    0.4335234354927733    0.5000000000000000 O
   0.0528823273061673    0.1207123927769980    0.5000000000000000 O
   0.5528823273061674    0.6207123927769981    0.4999999999999999 O
   0.9471176726938331    0.8792876072230016    0.5000000000000000 O
   0.4471176726938331    0.3792876072230016    0.5000000000000000 O
   0.3792876072230018    0.5528823273061670    0.4999999999999999 O
   0.8792876072230020    0.0528823273061672    0.4999999999999999 O
   0.6207123927769981    0.4471176726938326    0.4999999999999999 O
   0.1207123927769981    0.9471176726938326    0.4999999999999999 O
   0.6406222259012289    0.5430772358866263    0.4999999999999999 O
   0.1406222259012289    0.0430772358866263    0.4999999999999999 O
   0.3593777740987714    0.4569227641133735    0.4999999999999999 O
   0.8593777740987715    0.9569227641133735    0.4999999999999999 O
   0.9569227641133736    0.1406222259012286    0.5000000000000000 O
   0.4569227641133737    0.6406222259012286    0.4999999999999999 O
   0.0430772358866264    0.8593777740987711    0.5000000000000000 O
   0.5430772358866267    0.3593777740987711    0.5000000000000000 O
   0.2297567289327646    0.3046471549360641    0.5000000000000000 O
   0.7297567289327647    0.8046471549360641    0.4999999999999999 O
   0.7702432710672321    0.6953528450639324    0.5000000000000000 O
   0.2702432710672322    0.1953528450639324    0.5000000000000000 O
   0.1953528450639359    0.7297567289327644    0.5000000000000000 O
   0.6953528450639361    0.2297567289327644    0.5000000000000000 O
   0.8046471549360676    0.2702432710672320    0.5000000000000000 O
   0.3046471549360678    0.7702432710672320    0.4999999999999999 O
