Cr2 H32 C40 S8 O8
1.0
  10.7523117546761089  -10.7523117963810471    0.0000000000000000
  10.7523117963810488   10.7523117546761107    0.0000000000000008
  -0.0000000000000002   -0.0000000000000002   11.8725295836510849
Cr H C S O
2 32 40 8 8
direct
   0.0000000000000000    1.0000000000000000    0.5033322872244620 Cr
   0.5000000000000000    0.5000000000000001    0.5033322872244620 Cr
   0.6492469510505174    0.5866558603303755    0.6527078160290277 H
   0.1492469510505174    0.0866558603303755    0.6527078160290276 H
   0.3507530489494824    0.4133441396696243    0.6527078160290276 H
   0.8507530489494824    0.9133441396696244    0.6527078160290275 H
   0.9133441396696245    0.1492469510505174    0.6527078160290276 H
   0.4133441396696245    0.6492469510505176    0.6527078160290276 H
   0.0866558603303757    0.8507530489494826    0.6527078160290276 H
   0.5866558603303758    0.3507530489494826    0.6527078160290276 H
   0.1264506475942200    0.1961823971163879    0.6076637455135095 H
   0.6264506475942200    0.6961823971163880    0.6076637455135095 H
   0.8735493524057800    0.8038176028836119    0.6076637455135097 H
   0.3735493524057799    0.3038176028836119    0.6076637455135095 H
   0.3038176028836120    0.6264506475942199    0.6076637455135097 H
   0.8038176028836119    0.1264506475942200    0.6076637455135095 H
   0.6961823971163881    0.3735493524057798    0.6076637455135095 H
   0.1961823971163880    0.8735493524057798    0.6076637455135094 H
   0.7546776348288836    0.4871422134017302    0.5184314905096685 H
   0.2546776348288836    0.9871422134017304    0.5184314905096684 H
   0.2453223651711131    0.5128577865982651    0.5184314905096685 H
   0.7453223651711129    0.0128577865982651    0.5184314905096684 H
   0.0128577865982691    0.2546776348288829    0.5184314905096685 H
   0.5128577865982691    0.7546776348288831    0.5184314905096685 H
   0.9871422134017342    0.7453223651711123    0.5184314905096686 H
   0.4871422134017342    0.2453223651711123    0.5184314905096685 H
   0.8869310288330263    0.7253780682401897    0.3603686651618570 H
   0.3869310288330263    0.2253780682401898    0.3603686651618570 H
   0.1130689711669735    0.2746219317598109    0.3603686651618570 H
   0.6130689711669735    0.7746219317598110    0.3603686651618569 H
   0.7746219317598106    0.3869310288330267    0.3603686651618570 H
   0.2746219317598107    0.8869310288330268    0.3603686651618569 H
   0.2253780682401895    0.6130689711669739    0.3603686651618570 H
   0.7253780682401896    0.1130689711669739    0.3603686651618570 H
   0.6400128943252150    0.6286717782714365    0.5779956523187856 C
   0.1400128943252150    0.1286717782714366    0.5779956523187855 C
   0.3599871056747855    0.3713282217285637    0.5779956523187855 C
   0.8599871056747855    0.8713282217285638    0.5779956523187854 C
   0.8713282217285634    0.1400128943252148    0.5779956523187855 C
   0.3713282217285634    0.6400128943252149    0.5779956523187855 C
   0.1286717782714362    0.8599871056747854    0.5779956523187855 C
   0.6286717782714362    0.3599871056747854    0.5779956523187855 C
   0.7235035402428603    0.6288400558976691    0.5094842909063018 C
   0.2235035402428604    0.1288400558976692    0.5094842909063017 C
   0.2764964597571397    0.3711599441023311    0.5094842909063017 C
   0.7764964597571397    0.8711599441023311    0.5094842909063015 C
   0.8711599441023310    0.2235035402428605    0.5094842909063017 C
   0.3711599441023309    0.7235035402428606    0.5094842909063017 C
   0.1288400558976691    0.7764964597571398    0.5094842909063018 C
   0.6288400558976690    0.2764964597571398    0.5094842909063017 C
   0.7663147197717760    0.7044285193631854    0.4607756355169597 C
   0.2663147197717760    0.2044285193631856    0.4607756355169597 C
   0.2336852802282239    0.2955714806368148    0.4607756355169597 C
   0.7336852802282239    0.7955714806368148    0.4607756355169596 C
   0.7955714806368147    0.2663147197717762    0.4607756355169597 C
   0.2955714806368147    0.7663147197717762    0.4607756355169596 C
   0.2044285193631853    0.7336852802282241    0.4607756355169597 C
   0.7044285193631853    0.2336852802282241    0.4607756355169597 C
   0.7709452487887990    0.5529961092566900    0.4906254292213553 C
   0.2709452487887991    0.0529961092566902    0.4906254292213553 C
   0.2290547512112006    0.4470038907433094    0.4906254292213553 C
   0.7290547512112006    0.9470038907433094    0.4906254292213553 C
   0.9470038907433099    0.2709452487887989    0.4906254292213554 C
   0.4470038907433099    0.7709452487887991    0.4906254292213553 C
   0.0529961092566906    0.7290547512112004    0.4906254292213554 C
   0.5529961092566906    0.2290547512112007    0.4906254292213554 C
   0.8433353874049789    0.6817319337856937    0.4063683824008296 C
   0.3433353874049788    0.1817319337856937    0.4063683824008296 C
   0.1566646125950208    0.3182680662143055    0.4063683824008296 C
   0.6566646125950207    0.8182680662143055    0.4063683824008295 C
   0.8182680662143060    0.3433353874049787    0.4063683824008296 C
   0.3182680662143060    0.8433353874049787    0.4063683824008295 C
   0.1817319337856943    0.6566646125950205    0.4063683824008296 C
   0.6817319337856943    0.1566646125950206    0.4063683824008296 C
   0.8640545107669892    0.5714738322587841    0.4142812862424712 S
   0.3640545107669892    0.0714738322587842    0.4142812862424712 S
   0.1359454892330103    0.4285261677412159    0.4142812862424711 S
   0.6359454892330101    0.9285261677412159    0.4142812862424711 S
   0.9285261677412162    0.3640545107669895    0.4142812862424712 S
   0.4285261677412161    0.8640545107669895    0.4142812862424711 S
   0.0714738322587844    0.6359454892330105    0.4142812862424712 S
   0.5714738322587845    0.1359454892330105    0.4142812862424712 S
   0.0649261808811488    0.0980263314232999    0.5180545343731167 O
   0.5649261808811488    0.5980263314232999    0.5180545343731167 O
   0.9350738191188510    0.9019736685766999    0.5180545343731167 O
   0.4350738191188511    0.4019736685766999    0.5180545343731167 O
   0.4019736685767003    0.5649261808811489    0.5180545343731168 O
   0.9019736685767004    0.0649261808811490    0.5180545343731167 O
   0.5980263314233001    0.4350738191188510    0.5180545343731167 O
   0.0980263314233001    0.9350738191188510    0.5180545343731165 O
